128
cf3_ring dimer (whole structure, as scored by UMA)
C 1.545000 -5.811000 -7.824000
O 0.850000 -4.888000 -7.012000
C -0.084000 -5.298000 -6.088000
O -0.408000 -6.496000 -5.951000
C -0.684000 -4.213000 -5.244000
C -0.271000 -2.888000 -5.559000
C -0.667000 -1.883000 -4.734000
C -0.176000 -0.505000 -5.004000
N 0.245000 0.258000 -3.870000
C -0.091000 1.550000 -3.706000
O -0.522000 2.206000 -4.624000
C 0.178000 2.161000 -2.338000
C 0.237000 3.518000 -2.257000
C 0.434000 4.136000 -1.004000
C 0.482000 3.421000 0.178000
C 0.625000 4.195000 1.478000
O 0.662000 5.390000 1.529000
N 0.645000 3.428000 2.662000
C 0.467000 4.019000 4.077000
C 0.845000 3.124000 5.205000
C -0.200000 2.846000 6.081000
C 0.020000 1.970000 7.167000
C -1.025000 1.641000 8.140000
F -0.531000 1.635000 9.420000
F -1.525000 0.398000 7.906000
F -2.000000 2.603000 8.104000
C 1.355000 1.559000 7.411000
C 2.395000 1.749000 6.580000
C 3.828000 1.256000 6.842000
F 3.831000 0.305000 7.820000
F 4.409000 0.778000 5.719000
F 4.580000 2.230000 7.310000
C 2.109000 2.550000 5.483000
C 0.223000 2.057000 0.116000
C 0.167000 1.380000 -1.120000
C -1.585000 -2.109000 -3.692000
C -1.953000 -3.389000 -3.331000
C -2.756000 -3.674000 -2.133000
O -3.053000 -4.824000 -1.846000
O -3.175000 -2.538000 -1.443000
C -3.891000 -2.676000 -0.207000
C -1.483000 -4.414000 -4.090000
H 2.412000 -5.342000 -8.305000
H 1.973000 -6.731000 -7.409000
H 0.864000 -6.236000 -8.572001
H 0.422000 -2.633000 -6.355000
H 0.700000 -0.536000 -5.665000
H -1.016000 -0.073000 -5.562000
H 0.912000 -0.148000 -3.225000
H 0.312000 4.074000 -3.187000
H 0.565000 5.210000 -1.094000
H 0.661000 2.416000 2.632000
H 1.166000 4.864000 4.110000
H -0.598000 4.273000 4.150000
H -1.165000 3.322000 5.936000
H 1.610000 1.127000 8.374001
H 2.909000 2.695000 4.763000
H 0.047000 1.463000 1.009000
H 0.025000 0.305000 -1.068000
H -1.861000 -1.256000 -3.079000
H -3.789000 -1.737000 0.350000
H -3.420000 -3.492000 0.355000
H -4.942000 -2.901000 -0.424000
H -1.841000 -5.422000 -3.901000
C 2.054000 4.628000 9.516000
C 3.405000 4.895000 9.266000
C 3.758000 5.656000 8.103000
C 2.735000 6.057000 7.199000
C 1.376000 5.775000 7.484000
C 1.039000 5.082000 8.658999
O 0.355000 6.242000 6.703000
C -1.066000 6.364000 7.051000
C -1.898000 6.311000 5.668000
O -2.904000 5.257000 5.804000
C -3.789000 5.127000 4.667000
C -3.960000 3.674000 4.184000
O -2.826000 3.332000 3.298000
C -2.812000 1.980000 2.791000
C -2.079000 0.983000 3.818000
O -0.843000 0.455000 3.275000
C 0.029000 -0.228000 4.142000
C -0.473000 -0.876000 5.286000
C 0.369000 -1.578000 6.077000
C 1.683000 -1.840000 5.752000
C 2.207000 -1.282000 4.582000
C 1.439000 -0.456000 3.840000
O 1.991000 0.383000 2.879000
C 3.385000 0.426000 2.561000
C 3.606000 1.336000 1.400000
O 3.442000 2.763000 1.765000
C 4.437000 3.425000 2.505000
C 3.908000 4.799000 2.731000
O 4.984000 5.523000 3.436000
C 4.918000 5.478000 4.859000
C 4.333000 6.818000 5.444000
O 3.014000 6.623000 5.935000
H 1.734000 4.047000 10.375000
H 4.187000 4.535000 9.929000
H 4.788000 5.936000 7.906000
H -0.013000 4.865000 8.816000
H -1.392000 5.513000 7.662000
H -1.377000 7.298000 7.537000
H -1.284000 6.144000 4.775000
H -2.337000 7.305000 5.523000
H -4.743000 5.639000 4.841000
H -3.357000 5.737000 3.865000
H -4.821000 3.649000 3.505000
H -4.067000 2.998000 5.041000
H -3.838000 1.690000 2.534000
H -2.182000 2.040000 1.895000
H -2.034000 1.464000 4.803000
H -2.754000 0.119000 3.813000
H -1.510000 -0.785000 5.595000
H 0.036000 -1.914000 7.055000
H 2.370000 -2.307000 6.452000
H 3.244000 -1.451000 4.306000
H 3.719000 -0.589000 2.313000
H 3.938000 0.782000 3.439000
H 2.894000 1.132000 0.592000
H 4.597000 1.211000 0.945000
H 4.669000 2.928000 3.456000
H 5.340000 3.405000 1.883000
H 3.723000 5.141000 1.705000
H 2.911000 4.976000 3.155000
H 5.896000 5.505000 5.355000
H 4.428000 4.587000 5.269000
H 4.993000 7.268000 6.195000
H 4.250000 7.468000 4.565000
