64
cf3_ring rod (whole structure, as scored by UMA)
C 1.545000 -5.811000 -7.824000
O 0.850000 -4.888000 -7.012000
C -0.084000 -5.298000 -6.088000
O -0.408000 -6.496000 -5.951000
C -0.684000 -4.213000 -5.244000
C -0.271000 -2.888000 -5.559000
C -0.667000 -1.883000 -4.734000
C -0.176000 -0.505000 -5.004000
N 0.245000 0.258000 -3.870000
C -0.091000 1.550000 -3.706000
O -0.522000 2.206000 -4.624000
C 0.178000 2.161000 -2.338000
C 0.237000 3.518000 -2.257000
C 0.434000 4.136000 -1.004000
C 0.482000 3.421000 0.178000
C 0.625000 4.195000 1.478000
O 0.662000 5.390000 1.529000
N 0.645000 3.428000 2.662000
C 0.467000 4.019000 4.077000
C 0.845000 3.124000 5.205000
C -0.200000 2.846000 6.081000
C 0.020000 1.970000 7.167000
C -1.025000 1.641000 8.140000
F -0.531000 1.635000 9.420000
F -1.525000 0.398000 7.906000
F -2.000000 2.603000 8.104000
C 1.355000 1.559000 7.411000
C 2.395000 1.749000 6.580000
C 3.828000 1.256000 6.842000
F 3.831000 0.305000 7.820000
F 4.409000 0.778000 5.719000
F 4.580000 2.230000 7.310000
C 2.109000 2.550000 5.483000
C 0.223000 2.057000 0.116000
C 0.167000 1.380000 -1.120000
C -1.585000 -2.109000 -3.692000
C -1.953000 -3.389000 -3.331000
C -2.756000 -3.674000 -2.133000
O -3.053000 -4.824000 -1.846000
O -3.175000 -2.538000 -1.443000
C -3.891000 -2.676000 -0.207000
C -1.483000 -4.414000 -4.090000
H 2.412000 -5.342000 -8.305000
H 1.973000 -6.731000 -7.409000
H 0.864000 -6.236000 -8.572001
H 0.422000 -2.633000 -6.355000
H 0.700000 -0.536000 -5.665000
H -1.016000 -0.073000 -5.562000
H 0.912000 -0.148000 -3.225000
H 0.312000 4.074000 -3.187000
H 0.565000 5.210000 -1.094000
H 0.661000 2.416000 2.632000
H 1.166000 4.864000 4.110000
H -0.598000 4.273000 4.150000
H -1.165000 3.322000 5.936000
H 1.610000 1.127000 8.374001
H 2.909000 2.695000 4.763000
H 0.047000 1.463000 1.009000
H 0.025000 0.305000 -1.068000
H -1.861000 -1.256000 -3.079000
H -3.789000 -1.737000 0.350000
H -3.420000 -3.492000 0.355000
H -4.942000 -2.901000 -0.424000
H -1.841000 -5.422000 -3.901000
