64
cf3_ring wheel (whole structure, as scored by UMA)
C 2.054000 4.628000 9.516000
C 3.405000 4.895000 9.266000
C 3.758000 5.656000 8.103000
C 2.735000 6.057000 7.199000
C 1.376000 5.775000 7.484000
C 1.039000 5.082000 8.658999
O 0.355000 6.242000 6.703000
C -1.066000 6.364000 7.051000
C -1.898000 6.311000 5.668000
O -2.904000 5.257000 5.804000
C -3.789000 5.127000 4.667000
C -3.960000 3.674000 4.184000
O -2.826000 3.332000 3.298000
C -2.812000 1.980000 2.791000
C -2.079000 0.983000 3.818000
O -0.843000 0.455000 3.275000
C 0.029000 -0.228000 4.142000
C -0.473000 -0.876000 5.286000
C 0.369000 -1.578000 6.077000
C 1.683000 -1.840000 5.752000
C 2.207000 -1.282000 4.582000
C 1.439000 -0.456000 3.840000
O 1.991000 0.383000 2.879000
C 3.385000 0.426000 2.561000
C 3.606000 1.336000 1.400000
O 3.442000 2.763000 1.765000
C 4.437000 3.425000 2.505000
C 3.908000 4.799000 2.731000
O 4.984000 5.523000 3.436000
C 4.918000 5.478000 4.859000
C 4.333000 6.818000 5.444000
O 3.014000 6.623000 5.935000
H 1.734000 4.047000 10.375000
H 4.187000 4.535000 9.929000
H 4.788000 5.936000 7.906000
H -0.013000 4.865000 8.816000
H -1.392000 5.513000 7.662000
H -1.377000 7.298000 7.537000
H -1.284000 6.144000 4.775000
H -2.337000 7.305000 5.523000
H -4.743000 5.639000 4.841000
H -3.357000 5.737000 3.865000
H -4.821000 3.649000 3.505000
H -4.067000 2.998000 5.041000
H -3.838000 1.690000 2.534000
H -2.182000 2.040000 1.895000
H -2.034000 1.464000 4.803000
H -2.754000 0.119000 3.813000
H -1.510000 -0.785000 5.595000
H 0.036000 -1.914000 7.055000
H 2.370000 -2.307000 6.452000
H 3.244000 -1.451000 4.306000
H 3.719000 -0.589000 2.313000
H 3.938000 0.782000 3.439000
H 2.894000 1.132000 0.592000
H 4.597000 1.211000 0.945000
H 4.669000 2.928000 3.456000
H 5.340000 3.405000 1.883000
H 3.723000 5.141000 1.705000
H 2.911000 4.976000 3.155000
H 5.896000 5.505000 5.355000
H 4.428000 4.587000 5.269000
H 4.993000 7.268000 6.195000
H 4.250000 7.468000 4.565000
