64
central_isoside rod (whole structure, as scored by UMA)
C 1.662000 7.291000 -7.411000
O 1.157000 6.283000 -6.534000
C 1.973000 5.232000 -6.262000
O 3.080000 5.134000 -6.711000
C 1.499000 4.377000 -5.134000
C 2.306000 3.362000 -4.630000
C 1.849000 2.462000 -3.704000
C 2.815000 1.331000 -3.194000
N 2.455000 0.846000 -1.842000
C 3.320000 0.679000 -0.776000
O 4.482000 0.934000 -0.850000
C 2.768000 0.123000 0.524000
C 1.708000 -0.774000 0.473000
C 1.230000 -1.451000 1.641000
C 1.777000 -0.973000 2.903000
C 1.386000 -1.461000 4.302000
O 1.472000 -0.714000 5.288000
N 0.802000 -2.665000 4.327000
C 0.211000 -3.205000 5.548000
C -0.979000 -4.043000 5.142000
C -1.073000 -5.376000 5.327000
C -2.238000 -6.082000 5.056000
C -2.237000 -7.584000 5.397000
F -2.242000 -7.683000 6.722000
F -1.170000 -8.235000 4.996000
F -3.324000 -8.301000 4.939000
C -3.326000 -5.420000 4.503000
C -3.239000 -3.997000 4.369000
C -4.402000 -3.248000 3.585000
F -5.390000 -3.105000 4.471000
F -4.163000 -1.991000 3.150000
F -4.895000 -4.008000 2.569000
C -2.089000 -3.297000 4.703000
C 2.831000 0.042000 2.940000
C 3.295000 0.484000 1.747000
C 0.479000 2.497000 -3.381000
C -0.375000 3.498000 -3.896000
C -1.823000 3.338000 -3.590000
O -2.248000 3.202000 -2.471000
O -2.672000 3.435000 -4.686000
C -4.075000 3.480000 -4.398000
C 0.153000 4.445000 -4.800000
H 2.545000 7.780000 -6.983000
H 1.967000 6.819000 -8.353001
H 0.839000 7.986000 -7.621000
H 3.310000 3.272000 -5.034000
H 2.888000 0.475000 -3.876000
H 3.824000 1.754000 -3.125000
H 1.503000 0.757000 -1.509000
H 1.307000 -1.046000 -0.499000
H 0.427000 -2.172000 1.518000
H 0.651000 -3.150000 3.451000
H 0.912000 -3.835000 6.109000
H -0.042000 -2.364000 6.205000
H -0.208000 -5.899000 5.724000
H -4.306000 -5.865000 4.363000
H -1.955000 -2.249000 4.454000
H 3.288000 0.323000 3.884000
H 4.193000 1.087000 1.844000
H 0.136000 1.680000 -2.753000
H -4.495000 2.527000 -4.055000
H -4.643000 3.723000 -5.305000
H -4.359000 4.293000 -3.718000
H -0.534000 5.242000 -5.069000
