64
central_isoside wheel (whole structure, as scored by UMA)
C -1.481000 0.153000 2.443000
C -0.728000 1.229000 2.937000
C -0.015000 2.030000 2.028000
C -0.194000 1.774000 0.638000
C -0.876000 0.666000 0.170000
C -1.584000 -0.126000 1.089000
O -0.842000 0.308000 -1.189000
C -1.776000 -0.634000 -1.768000
C -1.776000 -0.694000 -3.302000
O -0.371000 -0.874000 -3.705000
C 0.165000 -2.200000 -3.667000
C 0.502000 -2.721000 -5.105000
O 1.513000 -1.865000 -5.623000
C 2.929000 -2.049000 -5.324000
C 3.781000 -1.319000 -6.370000
O 4.161000 -0.021000 -5.936000
C 5.020000 0.814000 -6.633000
C 5.038000 0.735000 -8.015000
C 5.801000 1.670000 -8.739000
C 6.500000 2.693000 -8.079000
C 6.462000 2.762000 -6.680000
C 5.702000 1.860000 -5.968000
O 5.795000 1.795000 -4.580000
C 6.442000 2.773000 -3.724000
C 5.748000 4.069000 -3.730000
O 4.853000 4.251000 -2.556000
C 5.010000 5.448000 -1.685000
C 4.298000 5.269000 -0.385000
O 2.865000 5.283000 -0.712000
C 2.232000 4.026000 -1.117000
C 1.596000 3.434000 0.132000
O 0.511000 2.532000 -0.278000
H -2.016000 -0.451000 3.170000
H -0.798000 1.518000 3.981000
H 0.504000 2.930000 2.345000
H -2.149000 -0.946000 0.656000
H -1.572000 -1.618000 -1.330000
H -2.818000 -0.450000 -1.478000
H -2.260000 0.228000 -3.647000
H -2.399000 -1.519000 -3.669000
H 1.090000 -2.072000 -3.091000
H -0.617000 -2.898000 -3.345000
H -0.339000 -2.627000 -5.802999
H 0.807000 -3.774000 -5.137000
H 3.250000 -1.891000 -4.287000
H 3.094000 -3.127000 -5.438000
H 4.658000 -1.976000 -6.406000
H 3.248000 -1.467000 -7.318000
H 4.604000 -0.147000 -8.476000
H 5.724000 1.708000 -9.821000
H 6.995000 3.491000 -8.624000
H 7.103000 3.539000 -6.274000
H 7.471000 2.857000 -4.097000
H 6.504000 2.416000 -2.689000
H 5.153000 4.310000 -4.620000
H 6.554000 4.806000 -3.832000
H 6.036000 5.627000 -1.339000
H 4.532000 6.318000 -2.152000
H 4.649000 4.351000 0.102000
H 4.513000 6.165000 0.211000
H 3.004000 3.351000 -1.507000
H 1.535000 4.194000 -1.947000
H 2.320000 2.774000 0.626000
H 1.232000 4.298000 0.702000
