43
strong_stopper dimer, wheel=atoms1-20 rod=atoms21-43 (FIXED: 4-col only)
C         -0.838056        1.410578       -4.621114
O         -0.611310        1.549928       -3.239452
C          0.682285        1.449310       -2.794418
C          1.730533        0.933961       -3.534915
C          3.013801        0.890450       -3.007818
C          3.250851        1.366306       -1.737463
C          2.209017        1.887177       -0.982500
C          0.921490        1.930770       -1.489964
O         -0.165349        2.426020       -0.830584
C          0.045773        3.201035        0.328867
H         -0.672224        0.382232       -4.960687
H         -0.202432        2.086644       -5.201398
H          1.564165        0.565478       -4.533840
H          3.814354        0.488525       -3.608304
H          4.249546        1.352324       -1.331063
H          2.411693        2.262921        0.006093
H          0.714162        4.044514        0.126427
H          0.453977        2.612435        1.155365
H         -1.882097        1.677879       -4.782668
H         -0.936618        3.578847        0.611130
N         -2.987082       -0.327460       -2.145373
C         -2.203683       -1.427741       -2.671880
C         -0.866366       -1.480983       -1.989442
C         -0.750299       -1.008443       -0.687403
C          0.468553       -1.063305       -0.035429
C          0.592383       -0.588213        1.385907
F         -0.465567        0.114150        1.806509
F          0.732671       -1.615287        2.245764
F          1.667095        0.197232        1.577002
C          1.593729       -1.591386       -0.655668
C          1.472305       -2.051515       -1.955750
C          2.651122       -2.650636       -2.672130
F          3.810661       -2.479786       -2.029600
F          2.502142       -3.979140       -2.848386
F          2.812803       -2.138590       -3.904494
C          0.253615       -1.998443       -2.621148
H         -3.877011       -0.262958       -2.622916
H         -2.487058        0.546485       -2.276909
H         -2.054194       -1.391551       -3.764036
H         -2.739674       -2.358861       -2.446789
H         -1.623039       -0.597397       -0.205951
H          2.537844       -1.635145       -0.136260
H          0.187785       -2.367468       -3.634107
