23
strong_stopper rod-side fragment (FIXED: 4-col only)
N         -2.987082       -0.327460       -2.145373
C         -2.203683       -1.427741       -2.671880
C         -0.866366       -1.480983       -1.989442
C         -0.750299       -1.008443       -0.687403
C          0.468553       -1.063305       -0.035429
C          0.592383       -0.588213        1.385907
F         -0.465567        0.114150        1.806509
F          0.732671       -1.615287        2.245764
F          1.667095        0.197232        1.577002
C          1.593729       -1.591386       -0.655668
C          1.472305       -2.051515       -1.955750
C          2.651122       -2.650636       -2.672130
F          3.810661       -2.479786       -2.029600
F          2.502142       -3.979140       -2.848386
F          2.812803       -2.138590       -3.904494
C          0.253615       -1.998443       -2.621148
H         -3.877011       -0.262958       -2.622916
H         -2.487058        0.546485       -2.276909
H         -2.054194       -1.391551       -3.764036
H         -2.739674       -2.358861       -2.446789
H         -1.623039       -0.597397       -0.205951
H          2.537844       -1.635145       -0.136260
H          0.187785       -2.367468       -3.634107
