20
strong_stopper wheel fragment (same ring every pairing) (FIXED: 4-col only)
C         -0.838056        1.410578       -4.621114
O         -0.611310        1.549928       -3.239452
C          0.682285        1.449310       -2.794418
C          1.730533        0.933961       -3.534915
C          3.013801        0.890450       -3.007818
C          3.250851        1.366306       -1.737463
C          2.209017        1.887177       -0.982500
C          0.921490        1.930770       -1.489964
O         -0.165349        2.426020       -0.830584
C          0.045773        3.201035        0.328867
H         -0.672224        0.382232       -4.960687
H         -0.202432        2.086644       -5.201398
H          1.564165        0.565478       -4.533840
H          3.814354        0.488525       -3.608304
H          4.249546        1.352324       -1.331063
H          2.411693        2.262921        0.006093
H          0.714162        4.044514        0.126427
H          0.453977        2.612435        1.155365
H         -1.882097        1.677879       -4.782668
H         -0.936618        3.578847        0.611130
