39
center_0F dimer, wheel=atoms1-20 rod=atoms21-39
C         -1.073000        1.279000       -4.377000
O         -0.512000        1.922000       -3.226000
C          0.705000        1.752000       -2.815000
C          1.689000        1.214000       -3.696000
C          2.975000        0.981000       -3.147000
C          3.286000        1.487000       -1.884000
C          2.354000        2.079000       -1.073000
C          1.028000        2.175000       -1.510000
O          0.037000        2.722000       -0.715000
C          0.162000        3.227000        0.564000
H         -1.293000        0.220000       -4.196000
H         -0.402000        1.404000       -5.237000
H          1.330000        0.842000       -4.651000
H          3.784000        0.523000       -3.706000
H          4.252000        1.310000       -1.421000
H          2.673000        2.424000       -0.095000
H          1.069000        3.776000        0.845000
H          0.121000        2.385000        1.265000
H         -2.021280        1.771935       -4.591196
H         -0.726151        3.820570        0.780712
O         -1.476000       -2.776000       -1.785000
C         -1.085000       -1.709000       -1.436000
N         -1.913000       -0.633000       -1.527000
C          0.315000       -1.519000       -0.916000
C          0.547000       -0.684000        0.176000
H         -0.258076       -0.123737        0.637534
C          1.853000       -0.516000        0.684000
H          1.975452        0.268508        1.421976
C          2.943000       -1.209000        0.166000
C          4.362000       -0.965000        0.622000
O          5.231000       -0.777000       -0.187000
O          4.524000       -0.686000        1.926000
C          2.743000       -2.107000       -0.858000
H          3.549768       -2.726030       -1.233477
C          1.463000       -2.292000       -1.432000
H          1.358683       -2.996738       -2.249018
H         -1.592000        0.214000       -1.074000
H         -2.864491       -0.762469       -1.840054
H          5.429525       -0.699113        2.273494
