19
center_0F rod-side fragment
O         -1.476000       -2.776000       -1.785000
C         -1.085000       -1.709000       -1.436000
N         -1.913000       -0.633000       -1.527000
C          0.315000       -1.519000       -0.916000
C          0.547000       -0.684000        0.176000
H         -0.258076       -0.123737        0.637534
C          1.853000       -0.516000        0.684000
H          1.975452        0.268508        1.421976
C          2.943000       -1.209000        0.166000
C          4.362000       -0.965000        0.622000
O          5.231000       -0.777000       -0.187000
O          4.524000       -0.686000        1.926000
C          2.743000       -2.107000       -0.858000
H          3.549768       -2.726030       -1.233477
C          1.463000       -2.292000       -1.432000
H          1.358683       -2.996738       -2.249018
H         -1.592000        0.214000       -1.074000
H         -2.864491       -0.762469       -1.840054
H          5.429525       -0.699113        2.273494
