43
strong_stopper_real dimer, real dethread1 key_frames MODEL 4, wheel=20 rod=23
C         40.142002       27.307999       13.443001
C         41.226002       27.518999       12.581000
C         41.370003       28.799000       12.005000
C         40.515999       29.847000       12.368000
C         39.451000       29.677999       13.139000
C         39.202000       28.353001       13.719999
O         39.948002       26.042000       13.982000
O         38.120998       28.106998       14.546000
C         40.865288       25.085944       13.998104
C         37.159022       28.966480       14.966839
H         41.987000       26.772001       12.375999
H         42.216000       28.993999       11.353001
H         40.549999       30.753000       11.771000
H         38.750999       30.486000       13.332000
H         41.635665       25.260667       14.758783
H         41.312348       24.941951       13.005699
H         36.761273       29.689106       14.243915
H         37.540081       29.581652       15.790491
H         40.332441       24.178793       14.283149
H         36.351450       28.377785       15.402004
N         36.800999       25.292000       14.295000
C         35.903999       25.500000       13.192000
C         36.582001       26.291000       12.034000
C         37.553001       25.646999       11.293000
C         38.313999       26.396999       10.362999
C         37.979000       27.701000       10.117001
C         36.903999       28.292000       10.822001
C         36.241001       27.584000       11.770000
C         39.316002       25.725000        9.430000
F         39.605999       24.528999        9.836000
F         40.471001       26.334000        9.431000
F         38.857998       25.718000        8.159000
C         36.475998       29.791000       10.488000
F         35.706001       29.966000        9.392000
F         35.775002       30.329000       11.513000
F         37.584000       30.525999       10.383000
H         37.848999       24.608000       11.400000
H         38.583000       28.313000        9.454000
H         35.316002       27.990999       12.167000
H         35.417000       24.589001       12.823000
H         35.050003       26.062000       13.592000
H         37.631001       25.837000       14.495000
H         36.603920       24.587517       14.991394
