20
strong_stopper_real wheel fragment, extracted from real dethread1 key_frames MODEL 4
C         40.142002       27.307999       13.443001
C         41.226002       27.518999       12.581000
C         41.370003       28.799000       12.005000
C         40.515999       29.847000       12.368000
C         39.451000       29.677999       13.139000
C         39.202000       28.353001       13.719999
O         39.948002       26.042000       13.982000
O         38.120998       28.106998       14.546000
C         40.865288       25.085944       13.998104
C         37.159022       28.966480       14.966839
H         41.987000       26.772001       12.375999
H         42.216000       28.993999       11.353001
H         40.549999       30.753000       11.771000
H         38.750999       30.486000       13.332000
H         41.635665       25.260667       14.758783
H         41.312348       24.941951       13.005699
H         36.761273       29.689106       14.243915
H         37.540081       29.581652       15.790491
H         40.332441       24.178793       14.283149
H         36.351450       28.377785       15.402004
