128
iso_ring dimer (whole structure, as scored by UMA)
C -1.761000 -5.471000 -5.055000
O -2.528000 -4.493000 -4.317000
C -3.703000 -4.781000 -3.776000
O -4.306000 -5.801000 -4.027000
C -4.314000 -3.761000 -2.886000
C -3.863000 -2.426000 -3.062000
C -4.418000 -1.414000 -2.197000
C -3.884000 0.019000 -2.494000
N -2.761000 0.322000 -1.634000
C -1.963000 1.457000 -1.741000
O -2.294000 2.266000 -2.613000
C -0.875000 1.703000 -0.779000
C -0.525000 0.750000 0.211000
C 0.512000 1.027000 1.136000
C 1.089000 2.346000 1.145000
C 2.197000 2.637000 2.105000
O 2.440000 1.942000 3.091000
N 3.044000 3.724000 1.789000
C 4.158000 4.169000 2.616000
C 5.210000 3.126000 2.629000
C 5.874000 2.898000 1.398000
C 6.879000 1.890000 1.317000
C 7.625000 1.530000 -0.007000
F 9.013000 1.472000 0.103000
F 7.373000 2.422000 -1.013000
F 7.156000 0.291000 -0.389000
C 7.322001 1.366000 2.515000
C 6.814000 1.614000 3.781000
C 7.297000 0.912000 5.019000
F 8.077000 1.673000 5.867000
F 6.283000 0.430000 5.735000
F 8.062000 -0.185000 4.591000
C 5.735000 2.572000 3.838000
C 0.596000 3.349000 0.271000
C -0.285000 2.980000 -0.739000
C -5.459000 -1.704000 -1.323000
C -5.977000 -3.007000 -1.239000
C -7.148000 -3.238000 -0.317000
O -7.816000 -4.217000 -0.352000
O -7.590000 -2.083000 0.324000
C -8.653000 -2.141000 1.283000
C -5.340000 -4.019000 -1.948000
H -0.873000 -4.997000 -5.489000
H -1.506000 -6.302000 -4.385000
H -2.418000 -5.841000 -5.851000
H -3.135000 -2.178000 -3.829000
H -3.605000 0.207000 -3.538000
H -4.640000 0.772000 -2.237000
H -2.672000 -0.369000 -0.899000
H -1.035000 -0.209000 0.215000
H 0.858000 0.246000 1.808000
H 2.728000 4.331000 1.042000
H 4.482000 5.138000 2.218000
H 3.769000 4.355000 3.625000
H 5.559000 3.433000 0.507000
H 8.141001 0.658000 2.434000
H 5.187000 2.718000 4.764000
H 0.937000 4.378000 0.349000
H -0.568000 3.750000 -1.450000
H -5.978000 -0.904000 -0.804000
H -9.598000 -2.163000 0.727000
H -8.693000 -1.174000 1.801000
H -8.537000 -2.957000 2.007000
H -5.700000 -5.041000 -1.873000
C -4.668000 -4.470000 1.594000
C -5.349000 -3.577000 2.385000
C -5.111000 -2.223000 2.237000
C -4.066000 -1.762000 1.325000
C -3.325000 -2.676000 0.603000
C -3.625000 -4.066000 0.727000
O -2.207000 -2.230000 -0.108000
C -1.322000 -3.148000 -0.871000
C -0.160000 -2.377000 -1.567000
O -0.809000 -1.613000 -2.574000
C -0.210000 -1.441000 -3.838000
C -0.829000 -0.221000 -4.463000
O -0.343000 -0.150000 -5.815000
C -1.308000 0.310000 -6.788000
C -2.324000 -0.793000 -7.175000
O -3.535000 -0.531000 -6.448000
C -4.560000 -1.432000 -6.461000
C -4.552000 -2.566000 -7.303000
C -5.587000 -3.532000 -7.172000
C -6.600000 -3.318000 -6.186000
C -6.640000 -2.101000 -5.465000
C -5.651000 -1.131000 -5.609000
O -5.628000 0.124000 -4.951000
C -6.837000 0.592000 -4.284000
C -6.503000 2.003000 -3.735000
O -7.144000 2.172000 -2.432000
C -6.772000 3.387000 -1.682000
C -5.415000 3.168000 -0.959000
O -5.544000 2.174000 0.061000
C -4.538000 2.015000 1.023000
C -4.681000 0.626000 1.736000
O -3.869000 -0.387000 1.098000
H -5.078000 -5.473000 1.665000
H -6.197000 -3.922000 2.968000
H -5.594000 -1.528000 2.917000
H -2.960000 -4.754000 0.213000
H -0.832000 -3.820000 -0.155000
H -1.812000 -3.710000 -1.676000
H 0.597000 -3.057000 -1.977000
H 0.362000 -1.717000 -0.863000
H 0.854000 -1.193000 -3.736000
H -0.432000 -2.346000 -4.418000
H -0.602000 0.667000 -3.861000
H -1.888000 -0.481000 -4.581000
H -1.788000 1.163000 -6.291000
H -0.782000 0.650000 -7.689000
H -2.490000 -0.907000 -8.253000
H -1.867000 -1.731000 -6.834000
H -3.809000 -2.691000 -8.086000
H -5.662000 -4.465000 -7.722000
H -7.437000 -4.006000 -6.118999
H -7.494000 -2.065000 -4.794000
H -7.183000 -0.058000 -3.470000
H -7.681000 0.620000 -4.984000
H -6.854000 2.756000 -4.452000
H -5.411000 2.109000 -3.726000
H -6.642000 4.272000 -2.316000
H -7.475000 3.675000 -0.890000
H -4.654000 2.936000 -1.715000
H -4.978000 4.066000 -0.507000
H -4.764000 2.710000 1.841000
H -3.520000 2.146000 0.636000
H -4.315000 0.745000 2.763000
H -5.741000 0.365000 1.843000
