64
iso_ring rod (whole structure, as scored by UMA)
C -1.761000 -5.471000 -5.055000
O -2.528000 -4.493000 -4.317000
C -3.703000 -4.781000 -3.776000
O -4.306000 -5.801000 -4.027000
C -4.314000 -3.761000 -2.886000
C -3.863000 -2.426000 -3.062000
C -4.418000 -1.414000 -2.197000
C -3.884000 0.019000 -2.494000
N -2.761000 0.322000 -1.634000
C -1.963000 1.457000 -1.741000
O -2.294000 2.266000 -2.613000
C -0.875000 1.703000 -0.779000
C -0.525000 0.750000 0.211000
C 0.512000 1.027000 1.136000
C 1.089000 2.346000 1.145000
C 2.197000 2.637000 2.105000
O 2.440000 1.942000 3.091000
N 3.044000 3.724000 1.789000
C 4.158000 4.169000 2.616000
C 5.210000 3.126000 2.629000
C 5.874000 2.898000 1.398000
C 6.879000 1.890000 1.317000
C 7.625000 1.530000 -0.007000
F 9.013000 1.472000 0.103000
F 7.373000 2.422000 -1.013000
F 7.156000 0.291000 -0.389000
C 7.322001 1.366000 2.515000
C 6.814000 1.614000 3.781000
C 7.297000 0.912000 5.019000
F 8.077000 1.673000 5.867000
F 6.283000 0.430000 5.735000
F 8.062000 -0.185000 4.591000
C 5.735000 2.572000 3.838000
C 0.596000 3.349000 0.271000
C -0.285000 2.980000 -0.739000
C -5.459000 -1.704000 -1.323000
C -5.977000 -3.007000 -1.239000
C -7.148000 -3.238000 -0.317000
O -7.816000 -4.217000 -0.352000
O -7.590000 -2.083000 0.324000
C -8.653000 -2.141000 1.283000
C -5.340000 -4.019000 -1.948000
H -0.873000 -4.997000 -5.489000
H -1.506000 -6.302000 -4.385000
H -2.418000 -5.841000 -5.851000
H -3.135000 -2.178000 -3.829000
H -3.605000 0.207000 -3.538000
H -4.640000 0.772000 -2.237000
H -2.672000 -0.369000 -0.899000
H -1.035000 -0.209000 0.215000
H 0.858000 0.246000 1.808000
H 2.728000 4.331000 1.042000
H 4.482000 5.138000 2.218000
H 3.769000 4.355000 3.625000
H 5.559000 3.433000 0.507000
H 8.141001 0.658000 2.434000
H 5.187000 2.718000 4.764000
H 0.937000 4.378000 0.349000
H -0.568000 3.750000 -1.450000
H -5.978000 -0.904000 -0.804000
H -9.598000 -2.163000 0.727000
H -8.693000 -1.174000 1.801000
H -8.537000 -2.957000 2.007000
H -5.700000 -5.041000 -1.873000
