64
iso_ring wheel (whole structure, as scored by UMA)
C -4.668000 -4.470000 1.594000
C -5.349000 -3.577000 2.385000
C -5.111000 -2.223000 2.237000
C -4.066000 -1.762000 1.325000
C -3.325000 -2.676000 0.603000
C -3.625000 -4.066000 0.727000
O -2.207000 -2.230000 -0.108000
C -1.322000 -3.148000 -0.871000
C -0.160000 -2.377000 -1.567000
O -0.809000 -1.613000 -2.574000
C -0.210000 -1.441000 -3.838000
C -0.829000 -0.221000 -4.463000
O -0.343000 -0.150000 -5.815000
C -1.308000 0.310000 -6.788000
C -2.324000 -0.793000 -7.175000
O -3.535000 -0.531000 -6.448000
C -4.560000 -1.432000 -6.461000
C -4.552000 -2.566000 -7.303000
C -5.587000 -3.532000 -7.172000
C -6.600000 -3.318000 -6.186000
C -6.640000 -2.101000 -5.465000
C -5.651000 -1.131000 -5.609000
O -5.628000 0.124000 -4.951000
C -6.837000 0.592000 -4.284000
C -6.503000 2.003000 -3.735000
O -7.144000 2.172000 -2.432000
C -6.772000 3.387000 -1.682000
C -5.415000 3.168000 -0.959000
O -5.544000 2.174000 0.061000
C -4.538000 2.015000 1.023000
C -4.681000 0.626000 1.736000
O -3.869000 -0.387000 1.098000
H -5.078000 -5.473000 1.665000
H -6.197000 -3.922000 2.968000
H -5.594000 -1.528000 2.917000
H -2.960000 -4.754000 0.213000
H -0.832000 -3.820000 -0.155000
H -1.812000 -3.710000 -1.676000
H 0.597000 -3.057000 -1.977000
H 0.362000 -1.717000 -0.863000
H 0.854000 -1.193000 -3.736000
H -0.432000 -2.346000 -4.418000
H -0.602000 0.667000 -3.861000
H -1.888000 -0.481000 -4.581000
H -1.788000 1.163000 -6.291000
H -0.782000 0.650000 -7.689000
H -2.490000 -0.907000 -8.253000
H -1.867000 -1.731000 -6.834000
H -3.809000 -2.691000 -8.086000
H -5.662000 -4.465000 -7.722000
H -7.437000 -4.006000 -6.118999
H -7.494000 -2.065000 -4.794000
H -7.183000 -0.058000 -3.470000
H -7.681000 0.620000 -4.984000
H -6.854000 2.756000 -4.452000
H -5.411000 2.109000 -3.726000
H -6.642000 4.272000 -2.316000
H -7.475000 3.675000 -0.890000
H -4.654000 2.936000 -1.715000
H -4.978000 4.066000 -0.507000
H -4.764000 2.710000 1.841000
H -3.520000 2.146000 0.636000
H -4.315000 0.745000 2.763000
H -5.741000 0.365000 1.843000
