20
center_2F wheel fragment (same ring every pairing)
C         -1.073000        1.279000       -4.377000
O         -0.512000        1.922000       -3.226000
C          0.705000        1.752000       -2.815000
C          1.689000        1.214000       -3.696000
C          2.975000        0.981000       -3.147000
C          3.286000        1.487000       -1.884000
C          2.354000        2.079000       -1.073000
C          1.028000        2.175000       -1.510000
O          0.037000        2.722000       -0.715000
C          0.162000        3.227000        0.564000
H         -1.293000        0.220000       -4.196000
H         -0.402000        1.404000       -5.237000
H          1.330000        0.842000       -4.651000
H          3.784000        0.523000       -3.706000
H          4.252000        1.310000       -1.421000
H          2.673000        2.424000       -0.095000
H          1.069000        3.776000        0.845000
H          0.121000        2.385000        1.265000
H         -2.021280        1.771935       -4.591196
H         -0.726151        3.820570        0.780712
