19
center_4F rod-side fragment
O     -1.476000    -2.776000    -1.785000
C     -1.085000    -1.709000    -1.436000
N     -1.913000    -0.633000    -1.527000
C      0.315000    -1.519000    -0.916000
C      0.547000    -0.684000     0.176000
F     -0.456000     0.014000     0.751000
C      1.853000    -0.516000     0.684000
F      2.003000     0.445000     1.588000
C      2.943000    -1.209000     0.166000
C      4.362000    -0.965000     0.622000
O      5.231000    -0.777000    -0.187000
O      4.524000    -0.686000     1.926000
C      2.743000    -2.107000    -0.858000
F      3.697000    -2.839000    -1.302000
C      1.463000    -2.292000    -1.432000
F      1.332000    -3.177000    -2.458000
H     -1.592000     0.214000    -1.074000
H     -2.864491    -0.762469    -1.840054
H      5.429525    -0.699113     2.273494
