33
weak_stopper_real dimer, real dethread1 key_frames MODEL 8, wheel=20 rod=13
C         43.223999       19.187000       22.474001
C         44.285004       19.702999       21.712000
C         44.028000       20.058998       20.357000
C         42.714001       19.861000       19.809000
C         41.636002       19.459999       20.639999
C         41.902000       19.094000       21.947998
O         43.439003       18.703999       23.782999
O         40.925999       18.694000       22.864000
C         44.614105       19.109551       24.461396
C         39.564180       18.478245       22.503560
H         45.300999       19.705999       22.095001
H         44.841000       20.522001       19.806000
H         42.382004       20.190001       18.829000
H         40.598000       19.395000       20.327000
H         44.640864       20.155195       24.790872
H         45.504047       18.856384       23.870316
H         39.287375       18.099525       21.512116
H         39.063053       19.450617       22.577111
H         44.595049       18.490601       25.358412
H         39.113742       17.866664       23.285337
O         40.380997       22.927000       20.320999
C         40.660000       22.649000       21.625999
C         39.610001       22.070000       22.402000
C         39.847000       21.604000       23.731998
C         41.181999       21.675999       24.244999
C         42.164997       22.223999       23.417999
C         41.935001       22.690001       22.144001
F         38.373001       22.093000       21.868999
F         38.743000       21.063002       24.437000
F         41.494003       21.001999       25.410000
F         43.362003       22.424000       23.989000
F         42.915001       23.206001       21.504000
H         40.277885       23.817139       19.976587
