13
weak_stopper_real stopper fragment, real dethread1 key_frames MODEL 8
O         40.380997       22.927000       20.320999
C         40.660000       22.649000       21.625999
C         39.610001       22.070000       22.402000
C         39.847000       21.604000       23.731998
C         41.181999       21.675999       24.244999
C         42.164997       22.223999       23.417999
C         41.935001       22.690001       22.144001
F         38.373001       22.093000       21.868999
F         38.743000       21.063002       24.437000
F         41.494003       21.001999       25.410000
F         43.362003       22.424000       23.989000
F         42.915001       23.206001       21.504000
H         40.277885       23.817139       19.976587
