61
C22H28FN3O6S from SMILES; ff=mmff
C      -1.760208898250801      1.408264823833078      3.515966822847884
C      -1.743628032564954      2.270498273696402      2.253049269128547
C      -0.511731262583688      3.174504326283619      2.193248967317313
C      -1.995299001904457      1.461778273900721      0.989827636574625
N      -3.216010736964722      1.696839660741732      0.443374679902495
C      -3.536544045416845      1.030590758864825     -0.666622974553988
N      -2.759553583198264      0.159295167559713     -1.304347062903000
C      -1.554984978634278     -0.089902274103573     -0.743295931062232
C      -1.100905827214815      0.553708155294363      0.419067198069639
C       0.229621002797194      0.282294997069908      0.976324164406508
C       1.364666080989839      0.633591299618421      0.347910366911670
C       2.761522355738123      0.341008124668751      0.828865282710923
C       3.445147633517796     -0.671341711997315     -0.103483215789159
C       4.945865678933275     -0.818702666654755      0.189098903012449
C       5.564429967704442     -1.894493710705666     -0.706243817547868
C       7.061033286659460     -1.875432908901753     -0.590958121086869
O       7.706318030200733     -1.419673695947852      0.339622569395324
O       7.668109385468033     -2.467441752044726     -1.634769835758675
O       5.109714974306343     -1.171957599418563      1.567470174529503
O       2.711358407641498     -0.163506382967127      2.159183447275435
C      -0.773026946045286     -1.100804942230925     -1.484492612827246
C      -0.363467039851048     -2.303967186741701     -0.879302156401667
C       0.391213518343159     -3.242983508346391     -1.587120159250596
C       0.732645742065686     -2.990567075527300     -2.909068760762695
C       0.326710834100412     -1.822348431839850     -3.540555090791235
C      -0.427435870611803     -0.883853682711369     -2.832057891051897
F       1.463129949385349     -3.886580326347441     -3.585223612460189
N      -4.824455149942590      1.284424375941392     -1.195842559196366
C      -4.984586831337175      0.961702314732416     -2.627847903938607
S      -6.053765536032850      0.667410275648811     -0.211788710443337
O      -7.302368530177087      0.806560184653286     -0.940435645441682
O      -5.667890855731138     -0.624613027204903      0.316628392134958
C      -6.137564595783272      1.840960486745104      1.129121922192018
H      -1.747251099208034      2.041019539352280      4.410308337434008
H      -2.663982066623163      0.790130442259238      3.557244690789909
H      -0.896485170159158      0.741172972896284      3.577486821274812
H      -2.598745308567811      2.955950246683373      2.351783118701360
H      -0.476737360833014      3.734669885257673      1.252631771368263
H       0.423074377518486      2.617496820212221      2.294864428151448
H      -0.536932874408294      3.900611346591709      3.013766856214664
H       0.261840705106922     -0.255558711895184      1.920133547626828
H       1.308775113871934      1.166573287845252     -0.599581443371901
H       3.324820637171966      1.280664181710305      0.851270491203296
H       3.312384986230058     -0.374849232598179     -1.151503851662859
H       2.965044549900299     -1.650106488936546      0.032237928976154
H       5.441616989636458      0.147489674854730      0.035161132601170
H       5.298681826769370     -1.703521138494639     -1.751914787938557
H       5.220658605557152     -2.893155084801890     -0.416236813585625
H       8.626159403271696     -2.423748463808159     -1.430302317395530
H       6.076287653306705     -1.202003952480873      1.736479553928300
H       3.579290642791246     -0.594588905994360      2.316656210861651
H      -0.634508119727912     -2.517491949257345      0.153236283854674
H       0.708280162933016     -4.167237692061838     -1.114843581132476
H       0.593186831102010     -1.650388809239348     -4.578286756103625
H      -0.750082860375757      0.026823376683248     -3.333598668429491
H      -5.018330517046676     -0.119656660436766     -2.796926683168903
H      -5.901355487581469      1.415821402807067     -3.017042604923131
H      -4.160659863800663      1.385251768975799     -3.213543170062735
H      -7.069523724992603      1.655774458215584      1.669441384999449
H      -6.152813941650005      2.851708601612116      0.717426615780011
H      -5.300753215797105      1.695888468484487      1.811278107680942
