56

O      -5.946000000000000     -1.067000000000000     -0.898000000000000
C      -4.909000000000000     -1.979000000000000     -1.068000000000000
C      -4.796000000000000     -2.994000000000000      0.107000000000000
O      -3.348000000000000     -3.286000000000000      0.522000000000000
C      -3.345000000000000     -4.045000000000000      1.722000000000000
C      -1.938000000000000     -3.844000000000000      2.503000000000000
O      -1.863000000000000     -4.815000000000000      3.502000000000000
C      -2.569000000000000     -4.682000000000000      4.796000000000000
C      -1.755000000000000     -3.719000000000000      5.729000000000000
O      -2.459000000000000     -3.787000000000000      7.083000000000000
C      -3.809000000000000     -3.161000000000000      7.149000000000000
C      -3.746000000000000     -1.682000000000000      7.505000000000000
O      -5.002000000000000     -1.120000000000000      7.019000000000000
C      -5.104000000000000      0.366000000000000      7.059000000000000
C      -6.368000000000000      0.904000000000000      6.281000000000000
O      -6.273000000000000      2.261000000000000      6.116000000000000
C      -5.758000000000000      2.658000000000000      4.841000000000000
C      -6.923000000000000      2.941000000000000      3.833000000000000
O      -6.246000000000000      3.329000000000000      2.551000000000000
C      -7.115000000000000      3.192000000000000      1.376000000000000
C      -6.148000000000000      3.202000000000000      0.110000000000000
O      -5.794000000000000      1.793000000000000     -0.292000000000000
C      -6.705000000000000      1.215000000000000     -1.295000000000000
C      -6.200000000000000     -0.099000000000000     -1.935000000000000
H      -5.018000000000000     -2.604000000000000     -1.962000000000000
H      -3.945000000000000     -1.464000000000000     -1.169000000000000
H      -5.232000000000000     -3.918000000000000     -0.293000000000000
H      -5.407000000000000     -2.650000000000000      0.951000000000000
H      -3.493000000000000     -5.092000000000000      1.427000000000000
H      -4.138000000000000     -3.782000000000000      2.432000000000000
H      -1.026000000000000     -3.947000000000000      1.902000000000000
H      -1.835000000000000     -2.829000000000000      2.906000000000000
H      -3.609000000000000     -4.361000000000000      4.658000000000000
H      -2.768000000000000     -5.640000000000000      5.291000000000000
H      -1.869000000000000     -2.714000000000000      5.303000000000000
H      -0.733000000000000     -4.116000000000000      5.755000000000000
H      -4.299000000000000     -3.363000000000000      6.188000000000000
H      -4.349000000000000     -3.637000000000000      7.978000000000000
H      -2.972000000000000     -1.221000000000000      6.878000000000000
H      -3.561000000000000     -1.503000000000000      8.571000000000000
H      -4.272000000000000      0.776000000000000      6.473000000000000
H      -5.034000000000000      0.801000000000000      8.063000000000001
H      -6.579000000000000      0.386000000000000      5.337000000000000
H      -7.276000000000000      0.666000000000000      6.849000000000000
H      -5.125000000000000      1.927000000000000      4.324000000000000
H      -5.229000000000000      3.606000000000000      4.998000000000000
H      -7.582000000000000      3.725000000000000      4.224000000000000
H      -7.492000000000000      2.021000000000000      3.649000000000000
H      -7.709000000000000      2.272000000000000      1.452000000000000
H      -7.839000000000000      4.006000000000000      1.247000000000000
H      -6.590000000000000      3.704000000000000     -0.760000000000000
H      -5.253000000000000      3.785000000000000      0.358000000000000
H      -6.860000000000000      1.947000000000000     -2.097000000000000
H      -7.681000000000000      1.131000000000000     -0.801000000000000
H      -5.263000000000000      0.079000000000000     -2.477000000000000
H      -6.925000000000000     -0.559000000000000     -2.617000000000000
56

O      -0.695000000000000     -2.696000000000000     -2.171000000000000
C       0.358000000000000     -3.402000000000000     -1.567000000000000
C      -0.133000000000000     -4.824000000000000     -1.012000000000000
O      -0.815000000000000     -4.705000000000000      0.273000000000000
C       0.180000000000000     -4.716000000000000      1.392000000000000
C      -0.594000000000000     -4.881000000000000      2.776000000000000
O      -1.555000000000000     -3.806000000000000      2.858000000000000
C      -1.904000000000000     -3.452000000000000      4.267000000000000
C      -3.223000000000000     -2.597000000000000      4.136000000000000
O      -2.891000000000000     -1.185000000000000      3.994000000000000
C      -3.915000000000000     -0.350000000000000      3.421000000000000
C      -3.460000000000000      1.144000000000000      3.497000000000000
O      -4.569000000000000      2.021000000000000      3.219000000000000
C      -4.992000000000000      1.934000000000000      1.867000000000000
C      -4.433000000000000      3.294000000000000      1.200000000000000
O      -4.358000000000000      3.102000000000000     -0.178000000000000
C      -3.823000000000000      4.024000000000000     -1.000000000000000
C      -4.342000000000000      3.768000000000000     -2.478000000000000
O      -3.898000000000000      2.519000000000000     -3.059000000000000
C      -2.674000000000000      2.653000000000000     -3.769000000000000
C      -2.247000000000000      1.327000000000000     -4.454000000000000
O      -1.394000000000000      0.630000000000000     -3.510000000000000
C      -1.524000000000000     -0.808000000000000     -3.522000000000000
C      -0.345000000000000     -1.453000000000000     -2.578000000000000
H       1.206000000000000     -3.411000000000000     -2.263000000000000
H       0.512000000000000     -2.747000000000000     -0.700000000000000
H       0.750000000000000     -5.470000000000000     -0.940000000000000
H      -0.828000000000000     -5.337000000000000     -1.688000000000000
H       0.890000000000000     -3.885000000000000      1.302000000000000
H       0.923000000000000     -5.510000000000000      1.249000000000000
H      -1.185000000000000     -5.802000000000000      2.858000000000000
H       0.062000000000000     -4.860000000000000      3.655000000000000
H      -1.979000000000000     -4.328000000000000      4.924000000000000
H      -1.165000000000000     -2.771000000000000      4.706000000000000
H      -3.750000000000000     -2.790000000000000      5.078000000000000
H      -3.811000000000000     -2.990000000000000      3.297000000000000
H      -4.068000000000000     -0.626000000000000      2.371000000000000
H      -4.883000000000000     -0.514000000000000      3.910000000000000
H      -2.606000000000000      1.433000000000000      2.871000000000000
H      -3.078000000000000      1.358000000000000      4.503000000000000
H      -6.088000000000000      1.960000000000000      1.917000000000000
H      -4.743000000000000      1.056000000000000      1.259000000000000
H      -5.186000000000000      4.069000000000000      1.390000000000000
H      -3.483000000000000      3.706000000000000      1.563000000000000
H      -2.739000000000000      3.863000000000000     -0.944000000000000
H      -4.097000000000000      5.044000000000000     -0.702000000000000
H      -3.981000000000000      4.546000000000000     -3.163000000000000
H      -5.438000000000000      3.813000000000000     -2.472000000000000
H      -2.694000000000000      3.486000000000000     -4.482000000000000
H      -1.910000000000000      2.981000000000000     -3.053000000000000
H      -3.138000000000000      0.772000000000000     -4.770000000000000
H      -1.741000000000000      1.581000000000000     -5.394000000000000
H      -1.461000000000000     -1.089000000000000     -4.580000000000000
H      -2.491000000000000     -1.098000000000000     -3.094000000000000
H      -0.016000000000000     -0.827000000000000     -1.740000000000000
H       0.578000000000000     -1.563000000000000     -3.160000000000000
56

O      -2.139000000000000     -4.140000000000000     -1.646000000000000
C      -2.194000000000000     -4.998000000000000     -0.452000000000000
C      -1.149000000000000     -4.408000000000000      0.669000000000000
O      -1.552000000000000     -4.874000000000000      1.990000000000000
C      -0.564000000000000     -4.655000000000000      2.953000000000000
C      -1.222000000000000     -5.018000000000000      4.338000000000000
O      -2.154000000000000     -3.997000000000000      4.706000000000000
C      -2.734000000000000     -3.923000000000000      5.996000000000000
C      -4.130000000000000     -3.184000000000000      5.892000000000000
O      -3.891000000000000     -1.813000000000000      5.580000000000000
C      -5.087000000000000     -1.132000000000000      5.350000000000000
C      -4.779000000000000      0.223000000000000      4.756000000000000
O      -5.991000000000000      0.863000000000000      4.291000000000000
C      -6.369000000000000      0.510000000000000      2.961000000000000
C      -5.873000000000000      1.650000000000000      2.002000000000000
O      -6.263000000000000      1.348000000000000      0.639000000000000
C      -5.522000000000000      1.998000000000000     -0.360000000000000
C      -6.240000000000000      1.547000000000000     -1.676000000000000
O      -5.412000000000000      0.514000000000000     -2.280000000000000
C      -6.020000000000000     -0.334000000000000     -3.273000000000000
C      -5.483000000000000     -1.793000000000000     -3.161000000000000
O      -3.983000000000000     -1.707000000000000     -3.147000000000000
C      -3.296000000000000     -2.920000000000000     -3.422000000000000
C      -3.430000000000000     -3.929000000000000     -2.304000000000000
H      -3.178000000000000     -4.958000000000000      0.032000000000000
H      -1.899000000000000     -6.026000000000000     -0.694000000000000
H      -1.128000000000000     -3.319000000000000      0.532000000000000
H      -0.130000000000000     -4.734000000000000      0.424000000000000
H      -0.359000000000000     -3.581000000000000      3.036000000000000
H       0.366000000000000     -5.217000000000000      2.801000000000000
H      -1.830000000000000     -5.902000000000000      4.111000000000000
H      -0.511000000000000     -5.228000000000000      5.147000000000000
H      -2.926000000000000     -4.931000000000000      6.385000000000000
H      -2.043000000000000     -3.450000000000000      6.704000000000000
H      -4.660000000000000     -3.288000000000000      6.847000000000000
H      -4.598000000000000     -3.784000000000000      5.102000000000000
H      -5.701000000000000     -1.708000000000000      4.646000000000000
H      -5.707000000000000     -1.174000000000000      6.254000000000000
H      -4.006000000000000      0.156000000000000      3.980000000000000
H      -4.419000000000000      0.798000000000000      5.618000000000000
H      -7.451000000000000      0.337000000000000      2.918000000000000
H      -5.867000000000000     -0.423000000000000      2.676000000000000
H      -6.184000000000000      2.679000000000000      2.223000000000000
H      -4.780000000000000      1.653000000000000      2.097000000000000
H      -4.558000000000000      1.475000000000000     -0.342000000000000
H      -5.445000000000000      3.078000000000000     -0.184000000000000
H      -6.334000000000000      2.382000000000000     -2.381000000000000
H      -7.277000000000000      1.266000000000000     -1.456000000000000
H      -7.114000000000000     -0.310000000000000     -3.207000000000000
H      -5.767000000000000      0.068000000000000     -4.262000000000000
H      -5.866000000000000     -2.198000000000000     -2.216000000000000
H      -5.953000000000000     -2.343000000000000     -3.986000000000000
H      -2.225000000000000     -2.751000000000000     -3.589000000000000
H      -3.856000000000000     -3.284000000000000     -4.292000000000000
H      -3.861000000000000     -4.838000000000000     -2.742000000000000
H      -4.170000000000000     -3.657000000000000     -1.541000000000000
56

O      -8.207000000000001     -4.627000000000000      1.489000000000000
C      -6.980000000000000     -5.359000000000000      1.331000000000000
C      -6.749000000000000     -6.140000000000000      2.650000000000000
O      -7.074000000000000     -5.388000000000000      3.820000000000000
C      -6.491000000000000     -5.880000000000000      5.080000000000000
C      -7.410000000000000     -6.945000000000000      5.699000000000000
O      -8.752000000000001     -6.357000000000000      5.776000000000000
C      -9.083000000000000     -5.486000000000000      6.868000000000000
C     -10.577000000000000     -5.799000000000000      7.135000000000000
O     -11.007999999999999     -5.089000000000000      8.352000000000000
C     -11.574000000000000     -3.784000000000000      8.000999999999999
C     -12.981999999999999     -3.978000000000000      7.413000000000000
O     -13.448000000000000     -2.729000000000000      6.963000000000000
C     -14.824999999999999     -2.627000000000000      6.665000000000000
C     -15.048000000000000     -1.365000000000000      5.917000000000000
O     -14.119999999999999     -1.344000000000000      4.815000000000000
C     -14.037000000000001     -0.147000000000000      3.963000000000000
C     -12.600000000000000      0.087000000000000      3.323000000000000
O     -12.461000000000000     -0.714000000000000      2.135000000000000
C     -11.086000000000000     -0.596000000000000      1.661000000000000
C     -10.726000000000001     -1.682000000000000      0.655000000000000
O      -9.313000000000001     -1.905000000000000      0.690000000000000
C      -8.766999999999999     -2.894000000000000     -0.221000000000000
C      -9.012000000000000     -4.427000000000000      0.238000000000000
H      -7.089000000000000     -6.094000000000000      0.524000000000000
H      -6.163000000000000     -4.679000000000000      1.059000000000000
H      -5.733000000000000     -6.530000000000000      2.789000000000000
H      -7.341000000000000     -7.061000000000000      2.718000000000000
H      -6.434000000000000     -5.012000000000000      5.748000000000000
H      -5.494000000000000     -6.270000000000000      4.840000000000000
H      -7.362000000000000     -7.794000000000000      5.007000000000000
H      -7.012000000000000     -7.419000000000000      6.604000000000000
H      -8.526999999999999     -5.903000000000000      7.716000000000000
H      -8.894000000000000     -4.423000000000000      6.670000000000000
H     -10.593999999999999     -6.890000000000000      7.247000000000000
H     -11.225000000000000     -5.626000000000000      6.267000000000000
H     -11.752000000000001     -3.240000000000000      8.936999999999999
H     -10.989000000000001     -3.234000000000000      7.253000000000000
H     -13.698000000000000     -4.418000000000000      8.119000000000000
H     -12.949000000000000     -4.662000000000000      6.555000000000000
H     -15.401000000000000     -2.594000000000000      7.598000000000000
H     -15.131000000000000     -3.456000000000000      6.016000000000000
H     -16.062000000000001     -1.379000000000000      5.499000000000000
H     -14.898999999999999     -0.480000000000000      6.548000000000000
H     -14.209000000000000      0.765000000000000      4.549000000000000
H     -14.754000000000000     -0.206000000000000      3.135000000000000
H     -11.734000000000000     -0.096000000000000      3.971000000000000
H     -12.579000000000001      1.138000000000000      3.008000000000000
H     -10.964000000000000      0.356000000000000      1.129000000000000
H     -10.401999999999999     -0.476000000000000      2.510000000000000
H     -11.305000000000000     -2.557000000000000      0.974000000000000
H     -11.002000000000001     -1.335000000000000     -0.348000000000000
H      -7.680000000000000     -2.792000000000000     -0.329000000000000
H      -9.247999999999999     -2.840000000000000     -1.206000000000000
H      -8.673000000000000     -5.051000000000000     -0.598000000000000
H     -10.038000000000000     -4.725000000000000      0.486000000000000
56

O      -3.363000000000000      1.723000000000000      7.151000000000000
C      -3.986000000000000      2.882000000000000      7.785000000000000
C      -4.611000000000000      3.747000000000000      6.771000000000000
O      -6.004000000000000      3.491000000000000      6.779000000000000
C      -6.862000000000000      4.193000000000000      5.887000000000000
C      -7.982000000000000      3.252000000000000      5.444000000000000
O      -7.692000000000000      2.777000000000000      4.137000000000000
C      -8.885000000000000      2.162000000000000      3.482000000000000
C      -8.839000000000000      0.710000000000000      4.015000000000000
O      -9.683000000000000     -0.096000000000000      3.100000000000000
C      -9.337999999999999     -1.511000000000000      3.207000000000000
C     -10.239000000000001     -2.120000000000000      4.412000000000000
O      -9.858000000000001     -3.561000000000000      4.513000000000000
C      -8.733000000000001     -3.878000000000000      5.235000000000000
C      -9.161000000000000     -4.116000000000000      6.735000000000000
O      -8.093000000000000     -4.766000000000000      7.528000000000000
C      -7.090000000000000     -3.789000000000000      7.846000000000000
C      -5.992000000000000     -4.460000000000000      8.621000000000000
O      -4.752000000000000     -4.149000000000000      8.085000000000001
C      -4.194000000000000     -2.919000000000000      8.510000000000000
C      -2.810000000000000     -2.834000000000000      7.712000000000000
O      -2.157000000000000     -1.634000000000000      8.090000000000000
C      -2.331000000000000     -0.531000000000000      7.161000000000000
C      -2.728000000000000      0.721000000000000      7.990000000000000
H      -4.742000000000000      2.568000000000000      8.515000000000001
H      -3.239000000000000      3.425000000000000      8.375999999999999
H      -4.243000000000000      3.488000000000000      5.771000000000000
H      -4.593000000000000      4.832000000000000      6.929000000000000
H      -6.162000000000000      4.455000000000000      5.084000000000000
H      -7.125000000000000      5.097000000000000      6.450000000000000
H      -7.990000000000000      2.499000000000000      6.242000000000000
H      -8.952999999999999      3.763000000000000      5.443000000000000
H      -9.827999999999999      2.621000000000000      3.804000000000000
H      -8.781000000000001      2.243000000000000      2.393000000000000
H      -9.211000000000000      0.615000000000000      5.043000000000000
H      -7.807000000000000      0.341000000000000      4.044000000000000
H      -9.650000000000000     -2.002000000000000      2.276000000000000
H      -8.271000000000001     -1.623000000000000      3.437000000000000
H     -11.247000000000000     -1.944000000000000      4.017000000000000
H     -10.141999999999999     -1.568000000000000      5.355000000000000
H      -8.007000000000000     -3.055000000000000      5.247000000000000
H      -8.231000000000000     -4.768000000000000      4.836000000000000
H      -9.574999999999999     -3.195000000000000      7.163000000000000
H     -10.021000000000001     -4.797000000000000      6.708000000000000
H      -7.498000000000000     -2.907000000000000      8.353999999999999
H      -6.679000000000000     -3.504000000000000      6.869000000000000
H      -6.068000000000000     -5.537000000000000      8.426000000000000
H      -6.030000000000000     -4.286000000000000      9.702999999999999
H      -4.875000000000000     -2.108000000000000      8.223000000000001
H      -4.065000000000000     -2.822000000000000      9.595000000000001
H      -2.144000000000000     -3.663000000000000      7.979000000000000
H      -2.972000000000000     -2.913000000000000      6.630000000000000
H      -3.167000000000000     -0.753000000000000      6.486000000000000
H      -1.435000000000000     -0.306000000000000      6.570000000000000
H      -1.827000000000000      1.139000000000000      8.454000000000001
H      -3.410000000000000      0.430000000000000      8.798000000000000
56

O      -6.224000000000000      5.633000000000000      3.331000000000000
C      -6.743000000000000      6.441000000000000      2.228000000000000
C      -6.640000000000000      5.673000000000000      0.929000000000000
O      -8.016999999999999      5.605000000000000      0.360000000000000
C      -8.868000000000000      4.555000000000000      0.890000000000000
C     -10.340000000000000      4.907000000000000      0.667000000000000
O     -11.010000000000000      3.766000000000000      1.242000000000000
C     -11.339000000000000      2.546000000000000      0.325000000000000
C     -11.702999999999999      1.321000000000000      1.190000000000000
O     -12.781000000000001      1.569000000000000      2.073000000000000
C     -12.823000000000000      0.596000000000000      3.271000000000000
C     -12.022000000000000      1.276000000000000      4.400000000000000
O     -12.545999999999999      0.813000000000000      5.713000000000000
C     -11.731000000000000      1.161000000000000      6.861000000000000
C     -12.180999999999999      2.554000000000000      7.285000000000000
O     -11.458000000000000      2.868000000000000      8.428000000000001
C     -10.348000000000001      3.692000000000000      8.284000000000001
C      -9.076000000000001      2.943000000000000      8.635999999999999
O      -7.990000000000000      3.344000000000000      7.744000000000000
C      -7.280000000000000      4.486000000000000      8.236000000000001
C      -5.940000000000000      4.555000000000000      7.509000000000000
O      -6.108000000000000      5.314000000000000      6.255000000000000
C      -4.907000000000000      5.426000000000000      5.486000000000000
C      -5.224000000000000      6.259000000000000      4.178000000000000
H      -7.747000000000000      6.814000000000000      2.463000000000000
H      -6.125000000000000      7.346000000000000      2.175000000000000
H      -6.149000000000000      4.696000000000000      1.020000000000000
H      -5.979000000000000      6.347000000000000      0.371000000000000
H      -8.612000000000000      4.518000000000000      1.956000000000000
H      -8.619999999999999      3.570000000000000      0.474000000000000
H     -10.678000000000001      5.802000000000000      1.204000000000000
H     -10.535000000000000      5.054000000000000     -0.402000000000000
H     -12.231999999999999      2.862000000000000     -0.229000000000000
H     -10.454000000000001      2.303000000000000     -0.277000000000000
H     -10.744999999999999      1.076000000000000      1.663000000000000
H     -11.980000000000000      0.439000000000000      0.599000000000000
H     -13.867000000000001      0.484000000000000      3.588000000000000
H     -12.371000000000000     -0.370000000000000      3.015000000000000
H     -12.167000000000000      2.362000000000000      4.329000000000000
H     -10.965999999999999      0.992000000000000      4.326000000000000
H     -10.660000000000000      1.131000000000000      6.624000000000000
H     -11.954000000000001      0.518000000000000      7.721000000000000
H     -12.085000000000001      3.271000000000000      6.461000000000000
H     -13.249000000000001      2.491000000000000      7.528000000000000
H     -10.336000000000000      4.583000000000000      8.925000000000001
H     -10.318000000000000      4.107000000000000      7.269000000000000
H      -9.210000000000001      1.887000000000000      8.369999999999999
H      -8.765000000000001      3.089000000000000      9.678000000000001
H      -7.859000000000000      5.407000000000000      8.098000000000001
H      -7.166000000000000      4.459000000000000      9.327000000000000
H      -5.288000000000000      5.174000000000000      8.137000000000000
H      -5.529000000000000      3.547000000000000      7.375000000000000
H      -4.573000000000000      4.432000000000000      5.165000000000000
H      -4.116000000000000      5.926000000000000      6.059000000000000
H      -4.306000000000000      6.435000000000000      3.603000000000000
H      -5.717000000000000      7.164000000000000      4.552000000000000
56

O      -4.207000000000000      4.456000000000000      4.303000000000000
C      -3.253000000000000      3.946000000000000      3.368000000000000
C      -3.658000000000000      4.170000000000000      1.839000000000000
O      -4.236000000000000      3.099000000000000      1.158000000000000
C      -5.645000000000000      2.869000000000000      1.405000000000000
C      -5.755000000000000      1.596000000000000      2.250000000000000
O      -6.914000000000000      0.833000000000000      1.959000000000000
C      -8.202000000000000      1.110000000000000      2.697000000000000
C      -8.375999999999999      0.101000000000000      3.813000000000000
O      -9.757999999999999      0.112000000000000      4.211000000000000
C      -9.938000000000001     -0.330000000000000      5.545000000000000
C      -9.881000000000000      0.820000000000000      6.447000000000000
O     -10.185000000000000      0.398000000000000      7.849000000000000
C      -9.176000000000000      0.255000000000000      8.875999999999999
C      -8.711000000000000      1.613000000000000      9.227000000000000
O      -7.808000000000000      1.642000000000000     10.334000000000000
C      -6.410000000000000      1.699000000000000     10.019000000000000
C      -5.989000000000000      3.219000000000000     10.068000000000000
O      -5.013000000000000      3.518000000000000      9.022000000000000
C      -4.332000000000000      4.771000000000000      9.146000000000001
C      -4.310000000000000      5.574000000000000      7.873000000000000
O      -3.187000000000000      5.127000000000000      7.011000000000000
C      -2.873000000000000      5.993000000000000      5.895000000000000
C      -4.029000000000000      5.859000000000000      4.785000000000000
H      -2.243000000000000      4.317000000000000      3.582000000000000
H      -3.315000000000000      2.864000000000000      3.541000000000000
H      -2.825000000000000      4.480000000000000      1.195000000000000
H      -4.416000000000000      4.955000000000000      1.727000000000000
H      -6.244000000000000      2.837000000000000      0.486000000000000
H      -5.966000000000000      3.685000000000000      2.064000000000000
H      -4.968000000000000      0.860000000000000      2.046000000000000
H      -5.746000000000000      1.806000000000000      3.327000000000000
H      -8.297000000000001      2.144000000000000      3.052000000000000
H      -9.012000000000000      0.833000000000000      2.011000000000000
H      -7.757000000000000      0.311000000000000      4.693000000000000
H      -8.128000000000000     -0.911000000000000      3.469000000000000
H     -10.846000000000000     -0.919000000000000      5.725000000000000
H      -9.135000000000000     -0.996000000000000      5.883000000000000
H     -10.606000000000000      1.540000000000000      6.047000000000000
H      -8.896000000000001      1.294000000000000      6.361000000000000
H      -8.295000000000000     -0.292000000000000      8.520000000000000
H      -9.589000000000000     -0.197000000000000      9.787000000000001
H      -8.182000000000000      2.072000000000000      8.382000000000000
H      -9.573000000000000      2.251000000000000      9.457000000000001
H      -6.213000000000000      1.296000000000000      9.016999999999999
H      -5.815000000000000      1.139000000000000     10.750999999999999
H      -5.503000000000000      3.378000000000000     11.039000000000000
H      -6.902000000000000      3.826000000000000     10.032999999999999
H      -4.868000000000000      5.392000000000000      9.874000000000001
H      -3.311000000000000      4.602000000000000      9.507999999999999
H      -5.256000000000000      5.552000000000000      7.317000000000000
H      -4.077000000000000      6.629000000000000      8.063000000000001
H      -1.994000000000000      5.582000000000000      5.384000000000000
H      -2.645000000000000      7.032000000000000      6.165000000000000
H      -3.823000000000000      6.462000000000000      3.892000000000000
H      -4.943000000000000      6.277000000000000      5.227000000000000
56

O      -5.110000000000000      4.826000000000000      5.512000000000000
C      -6.013000000000000      5.257000000000000      4.454000000000000
C      -6.925000000000000      4.120000000000000      3.881000000000000
O      -7.716000000000000      3.555000000000000      4.970000000000000
C      -8.866000000000000      2.787000000000000      4.534000000000000
C     -10.183999999999999      3.655000000000000      4.677000000000000
O     -10.262000000000000      4.194000000000000      6.032000000000000
C     -11.098000000000001      3.527000000000000      7.014000000000000
C     -11.115000000000000      4.320000000000000      8.367000000000001
O     -11.515000000000001      3.371000000000000      9.404000000000000
C     -11.890000000000001      3.911000000000000     10.662000000000001
C     -10.584000000000000      3.910000000000000     11.579000000000001
O      -9.843999999999999      2.603000000000000     11.477000000000000
C      -9.125999999999999      2.394000000000000     12.630000000000001
C      -8.005000000000001      1.393000000000000     12.345000000000001
O      -6.844000000000000      2.201000000000000     12.068000000000000
C      -6.041000000000000      2.359000000000000     13.289000000000000
C      -4.545000000000000      2.704000000000000     12.840000000000000
O      -4.614000000000000      3.990000000000000     12.076000000000001
C      -4.208000000000000      3.766000000000000     10.667999999999999
C      -4.074000000000000      5.132000000000000      9.817000000000000
O      -3.992000000000000      4.773000000000000      8.388000000000000
C      -4.236000000000000      5.981000000000000      7.550000000000000
C      -4.150000000000000      5.806000000000000      6.007000000000000
H      -6.621000000000000      6.103000000000000      4.797000000000000
H      -5.325000000000000      5.626000000000000      3.684000000000000
H      -6.192000000000000      3.388000000000000      3.523000000000000
H      -7.555000000000000      4.513000000000000      3.073000000000000
H      -8.952000000000000      1.922000000000000      5.203000000000000
H      -8.794000000000000      2.431000000000000      3.499000000000000
H     -10.196999999999999      4.504000000000000      3.982000000000000
H     -11.060000000000000      3.071000000000000      4.368000000000000
H     -12.117000000000001      3.421000000000000      6.621000000000000
H     -10.782999999999999      2.498000000000000      7.228000000000000
H     -11.917000000000000      5.047000000000000      8.193000000000000
H     -10.141000000000000      4.793000000000000      8.542000000000000
H     -12.129000000000000      4.975000000000000     10.545999999999999
H     -12.625999999999999      3.306000000000000     11.205000000000000
H     -10.791000000000000      4.124000000000000     12.635000000000000
H      -9.948000000000000      4.745000000000000     11.260999999999999
H      -9.801000000000000      2.080000000000000     13.436999999999999
H      -8.641000000000000      3.334000000000000     12.919000000000000
H      -7.833000000000000      0.732000000000000     13.204000000000001
H      -8.298000000000000      0.784000000000000     11.481000000000000
H      -6.054000000000000      1.467000000000000     13.927000000000000
H      -6.475000000000000      3.221000000000000     13.811000000000000
H      -4.060000000000000      1.993000000000000     12.161000000000000
H      -3.967000000000000      2.857000000000000     13.760000000000000
H      -3.187000000000000      3.364000000000000     10.645000000000000
H      -4.983000000000000      3.159000000000000     10.183999999999999
H      -4.945000000000000      5.785000000000000      9.952000000000000
H      -3.175000000000000      5.690000000000000     10.106000000000000
H      -3.468000000000000      6.722000000000000      7.802000000000000
H      -5.226000000000000      6.425000000000000      7.710000000000000
H      -3.164000000000000      5.352000000000000      5.845000000000000
H      -4.263000000000000      6.760000000000000      5.479000000000000
56

O      -9.098000000000001      2.615000000000000      5.182000000000000
C     -10.478000000000000      2.947000000000000      5.310000000000000
C     -11.161000000000000      2.120000000000000      6.518000000000000
O     -12.206000000000000      2.926000000000000      7.125000000000000
C     -12.122000000000000      3.297000000000000      8.509000000000000
C     -12.968999999999999      2.285000000000000      9.311999999999999
O     -12.814000000000000      2.659000000000000     10.712999999999999
C     -11.645000000000000      2.171000000000000     11.355000000000000
C     -12.074000000000000      1.362000000000000     12.627000000000001
O     -10.972000000000000      0.823000000000000     13.420000000000000
C     -10.400000000000000     -0.430000000000000     12.912000000000001
C      -8.916000000000000     -0.649000000000000     13.300000000000001
O      -8.153000000000000      0.532000000000000     13.069000000000001
C      -6.771000000000000      0.343000000000000     13.526999999999999
C      -5.904000000000000     -0.036000000000000     12.196999999999999
O      -5.465000000000000      1.190000000000000     11.584000000000000
C      -4.827000000000000      1.208000000000000     10.240000000000000
C      -4.662000000000000      2.686000000000000      9.821999999999999
O      -5.033000000000000      2.967000000000000      8.414000000000000
C      -5.308000000000000      4.381000000000000      8.060000000000000
C      -5.382000000000000      4.490000000000000      6.573000000000000
O      -6.574000000000000      3.789000000000000      6.171000000000000
C      -6.816000000000000      3.724000000000000      4.717000000000000
C      -8.339000000000000      3.693000000000000      4.388000000000000
H     -10.635999999999999      3.995000000000000      5.592000000000000
H     -10.994000000000000      2.849000000000000      4.347000000000000
H     -10.428000000000001      1.724000000000000      7.231000000000000
H     -11.583000000000000      1.224000000000000      6.045000000000000
H     -12.503000000000000      4.324000000000000      8.585000000000001
H     -11.095000000000001      3.417000000000000      8.872999999999999
H     -14.000999999999999      2.496000000000000      9.007999999999999
H     -12.728000000000000      1.242000000000000      9.071000000000000
H     -11.077999999999999      1.586000000000000     10.619999999999999
H     -11.019000000000000      3.025000000000000     11.641000000000000
H     -12.757000000000000      0.518000000000000     12.468000000000000
H     -12.654000000000000      2.077000000000000     13.224000000000000
H     -11.015000000000001     -1.262000000000000     13.276000000000000
H     -10.356999999999999     -0.345000000000000     11.819000000000001
H      -8.462000000000000     -1.503000000000000     12.782999999999999
H      -8.865000000000000     -0.959000000000000     14.351000000000001
H      -6.656000000000000     -0.465000000000000     14.259000000000000
H      -6.401000000000000      1.287000000000000     13.946000000000000
H      -4.983000000000000     -0.563000000000000     12.477000000000000
H      -6.502000000000000     -0.617000000000000     11.484999999999999
H      -5.474000000000000      0.648000000000000      9.555000000000000
H      -3.877000000000000      0.660000000000000     10.286000000000000
H      -3.604000000000000      2.900000000000000     10.016999999999999
H      -5.121000000000000      3.442000000000000     10.470000000000001
H      -6.224000000000000      4.718000000000000      8.561000000000000
H      -4.427000000000000      4.932000000000000      8.413000000000000
H      -5.540000000000000      5.548000000000000      6.328000000000000
H      -4.546000000000000      3.952000000000000      6.109000000000000
H      -6.375000000000000      2.791000000000000      4.345000000000000
H      -6.327000000000000      4.611000000000000      4.297000000000000
H      -8.459000000000000      3.446000000000000      3.326000000000000
H      -8.663000000000000      4.714000000000000      4.624000000000000
56

O      -9.445000000000000      2.061000000000000      3.885000000000000
C      -9.734999999999999      0.673000000000000      4.191000000000000
C      -9.411000000000000      0.485000000000000      5.737000000000000
O      -8.254000000000000     -0.218000000000000      5.969000000000000
C      -8.188000000000001     -0.621000000000000      7.340000000000000
C      -6.734000000000000     -1.028000000000000      7.537000000000000
O      -6.658000000000000     -1.412000000000000      8.926000000000000
C      -6.113000000000000     -0.361000000000000      9.830000000000000
C      -4.571000000000000     -0.225000000000000      9.446999999999999
O      -3.835000000000000      0.417000000000000     10.512000000000000
C      -3.711000000000000      1.816000000000000     10.435000000000000
C      -2.181000000000000      2.138000000000000     10.369000000000000
O      -2.019000000000000      3.552000000000000     10.262000000000000
C      -1.703000000000000      4.059000000000000      8.895000000000000
C      -2.905000000000000      4.810000000000000      8.214000000000000
O      -2.526000000000000      5.579000000000000      7.019000000000000
C      -2.953000000000000      4.981000000000000      5.713000000000000
C      -4.383000000000000      5.461000000000000      5.402000000000000
O      -4.754000000000000      4.669000000000000      4.259000000000000
C      -5.575000000000000      5.492000000000000      3.316000000000000
C      -6.289000000000000      4.467000000000000      2.296000000000000
O      -7.340000000000000      3.713000000000000      2.817000000000000
C      -8.637000000000000      3.652000000000000      2.159000000000000
C      -9.240000000000000      2.222000000000000      2.476000000000000
H     -10.795999999999999      0.455000000000000      4.016000000000000
H      -9.101000000000001      0.048000000000000      3.550000000000000
H     -10.214000000000000     -0.072000000000000      6.235000000000000
H      -9.396000000000001      1.485000000000000      6.187000000000000
H      -8.726000000000001     -1.553000000000000      7.555000000000000
H      -8.367000000000001      0.180000000000000      8.068000000000000
H      -6.479000000000000     -1.906000000000000      6.931000000000000
H      -6.021000000000000     -0.282000000000000      7.166000000000000
H      -6.583000000000000      0.628000000000000      9.762000000000000
H      -6.341000000000000     -0.759000000000000     10.827000000000000
H      -4.261000000000000      0.167000000000000      8.470000000000001
H      -4.237000000000000     -1.269000000000000      9.468999999999999
H      -4.091000000000000      2.209000000000000      9.484000000000000
H      -4.372000000000000      2.303000000000000     11.162000000000001
H      -1.672000000000000      1.629000000000000      9.541000000000000
H      -1.729000000000000      1.745000000000000     11.288000000000000
H      -1.303000000000000      3.233000000000000      8.294000000000000
H      -0.855000000000000      4.754000000000000      8.936999999999999
H      -3.745000000000000      4.142000000000000      7.984000000000000
H      -3.325000000000000      5.506000000000000      8.951000000000001
H      -2.843000000000000      3.900000000000000      5.863000000000000
H      -2.243000000000000      5.203000000000000      4.907000000000000
H      -4.261000000000000      6.523000000000000      5.158000000000000
H      -4.953000000000000      5.232000000000000      6.311000000000000
H      -6.349000000000000      6.078000000000000      3.827000000000000
H      -4.934000000000000      6.120000000000000      2.685000000000000
H      -6.613000000000000      5.020000000000000      1.406000000000000
H      -5.495000000000000      3.780000000000000      1.980000000000000
H      -8.458000000000000      3.778000000000000      1.084000000000000
H      -9.295999999999999      4.433000000000000      2.560000000000000
H      -8.502000000000001      1.498000000000000      2.107000000000000
H     -10.118000000000000      2.178000000000000      1.819000000000000
56

O      -3.900000000000000      1.200000000000000     -2.439000000000000
C      -5.095000000000000      0.463000000000000     -2.142000000000000
C      -4.613000000000000     -0.989000000000000     -1.937000000000000
O      -5.112000000000000     -1.596000000000000     -0.699000000000000
C      -4.355000000000000     -2.721000000000000     -0.128000000000000
C      -3.812000000000000     -2.251000000000000      1.228000000000000
O      -4.129000000000000     -3.194000000000000      2.314000000000000
C      -3.144000000000000     -3.362000000000000      3.335000000000000
C      -3.275000000000000     -2.136000000000000      4.247000000000000
O      -2.115000000000000     -1.918000000000000      5.051000000000000
C      -2.187000000000000     -1.049000000000000      6.273000000000000
C      -0.811000000000000     -0.561000000000000      6.725000000000000
O      -0.320000000000000      0.342000000000000      5.730000000000000
C       0.815000000000000      1.106000000000000      6.034000000000000
C       1.300000000000000      1.789000000000000      4.735000000000000
O       0.287000000000000      2.714000000000000      4.325000000000000
C       0.562000000000000      3.216000000000000      2.997000000000000
C      -0.696000000000000      4.087000000000000      2.425000000000000
O      -0.398000000000000      4.607000000000000      1.108000000000000
C      -0.903000000000000      3.825000000000000      0.019000000000000
C      -2.308000000000000      4.345000000000000     -0.466000000000000
O      -2.548000000000000      3.646000000000000     -1.737000000000000
C      -3.968000000000000      3.590000000000000     -2.142000000000000
C      -4.177000000000000      2.450000000000000     -3.149000000000000
H      -5.678000000000000      0.954000000000000     -1.353000000000000
H      -5.721000000000000      0.507000000000000     -3.041000000000000
H      -3.522000000000000     -0.927000000000000     -2.036000000000000
H      -4.906000000000000     -1.567000000000000     -2.822000000000000
H      -3.525000000000000     -2.976000000000000     -0.798000000000000
H      -4.928000000000000     -3.647000000000000      0.005000000000000
H      -2.727000000000000     -2.103000000000000      1.156000000000000
H      -4.157000000000000     -1.221000000000000      1.376000000000000
H      -3.362000000000000     -4.335000000000000      3.792000000000000
H      -2.178000000000000     -3.489000000000000      2.829000000000000
H      -4.133000000000000     -2.396000000000000      4.879000000000000
H      -3.583000000000000     -1.230000000000000      3.710000000000000
H      -2.784000000000000     -0.179000000000000      5.973000000000000
H      -2.719000000000000     -1.672000000000000      7.003000000000000
H      -0.179000000000000     -1.452000000000000      6.832000000000000
H      -1.018000000000000     -0.084000000000000      7.690000000000000
H       1.587000000000000      0.454000000000000      6.461000000000000
H       0.554000000000000      1.817000000000000      6.828000000000000
H       2.213000000000000      2.346000000000000      4.979000000000000
H       1.575000000000000      1.053000000000000      3.968000000000000
H       0.804000000000000      2.375000000000000      2.336000000000000
H       1.461000000000000      3.843000000000000      3.042000000000000
H      -0.818000000000000      4.967000000000000      3.068000000000000
H      -1.591000000000000      3.453000000000000      2.395000000000000
H      -0.207000000000000      3.818000000000000     -0.828000000000000
H      -0.892000000000000      2.759000000000000      0.278000000000000
H      -3.073000000000000      3.994000000000000      0.238000000000000
H      -2.369000000000000      5.424000000000000     -0.654000000000000
H      -4.309000000000000      4.500000000000000     -2.652000000000000
H      -4.554000000000000      3.418000000000000     -1.230000000000000
H      -3.492000000000000      2.526000000000000     -4.002000000000000
H      -5.206000000000000      2.519000000000000     -3.524000000000000
56

O       7.447000000000000     -2.523000000000000     -4.858000000000000
C       7.080000000000000     -3.872000000000000     -5.237000000000000
C       7.138000000000000     -4.805000000000000     -3.967000000000000
O       8.068000000000000     -5.926000000000000     -4.173000000000000
C       9.273000000000000     -5.894000000000000     -3.342000000000000
C       8.913000000000000     -6.329000000000000     -1.909000000000000
O      10.180000000000000     -6.645000000000000     -1.243000000000000
C      10.782000000000000     -5.625000000000000     -0.297000000000000
C      10.129000000000000     -5.734000000000000      1.158000000000000
O      10.265000000000001     -4.528000000000000      1.927000000000000
C       9.074999999999999     -3.783000000000000      2.495000000000000
C       9.532999999999999     -2.426000000000000      3.127000000000000
O       9.901999999999999     -1.464000000000000      2.078000000000000
C       8.756000000000000     -0.579000000000000      1.796000000000000
C       9.331000000000000      0.532000000000000      0.841000000000000
O       8.452000000000000      1.757000000000000      0.759000000000000
C       7.724000000000000      1.875000000000000     -0.493000000000000
C       8.608000000000001      2.187000000000000     -1.749000000000000
O       7.788000000000000      2.298000000000000     -2.871000000000000
C       8.534000000000001      2.284000000000000     -4.098000000000000
C       7.623000000000000      2.177000000000000     -5.341000000000000
O       7.040000000000000      0.840000000000000     -5.314000000000000
C       7.921000000000000     -0.203000000000000     -5.808000000000000
C       7.163000000000000     -1.580000000000000     -5.963000000000000
H       6.055000000000000     -3.934000000000000     -5.625000000000000
H       7.740000000000000     -4.194000000000000     -6.053000000000000
H       6.147000000000000     -5.210000000000000     -3.729000000000000
H       7.440000000000000     -4.249000000000000     -3.070000000000000
H       9.691000000000001     -4.880000000000000     -3.355000000000000
H      10.016999999999999     -6.564000000000000     -3.788000000000000
H       8.346000000000000     -5.495000000000000     -1.477000000000000
H       8.337000000000000     -7.259000000000000     -1.834000000000000
H      11.859000000000000     -5.819000000000000     -0.226000000000000
H      10.609999999999999     -4.659000000000000     -0.789000000000000
H      10.394000000000000     -6.639000000000000      1.718000000000000
H       9.060000000000000     -5.912000000000000      0.986000000000000
H       8.310000000000000     -3.569000000000000      1.738000000000000
H       8.702000000000000     -4.378000000000000      3.338000000000000
H      10.393000000000001     -2.608000000000000      3.783000000000000
H       8.775000000000000     -1.912000000000000      3.731000000000000
H       8.275000000000000     -0.211000000000000      2.710000000000000
H       7.976000000000000     -1.122000000000000      1.249000000000000
H      10.303000000000001      0.839000000000000      1.247000000000000
H       9.539000000000000      0.207000000000000     -0.186000000000000
H       7.116000000000000      2.775000000000000     -0.341000000000000
H       7.044000000000000      1.037000000000000     -0.690000000000000
H       9.441000000000001      1.500000000000000     -1.943000000000000
H       9.036000000000000      3.175000000000000     -1.537000000000000
H       9.082000000000001      3.231000000000000     -4.169000000000000
H       9.141000000000000      1.373000000000000     -4.165000000000000
H       6.857000000000000      2.963000000000000     -5.346000000000000
H       8.263999999999999      2.314000000000000     -6.221000000000000
H       8.837000000000000     -0.282000000000000     -5.208000000000000
H       8.214000000000000      0.062000000000000     -6.831000000000000
H       7.416000000000000     -2.004000000000000     -6.943000000000000
H       6.081000000000000     -1.410000000000000     -5.904000000000000
56

O       6.989000000000000     -1.434000000000000     -5.252000000000000
C       5.889000000000000     -2.431000000000000     -5.380000000000000
C       6.459000000000000     -3.872000000000000     -5.508000000000000
O       5.423000000000000     -4.704000000000000     -4.958000000000000
C       5.856000000000000     -6.033000000000000     -4.673000000000000
C       5.090000000000000     -6.541000000000000     -3.356000000000000
O       5.796000000000000     -7.636000000000000     -2.696000000000000
C       6.977000000000000     -7.289000000000000     -1.875000000000000
C       6.529000000000000     -6.811000000000000     -0.446000000000000
O       7.760000000000000     -6.508000000000000      0.399000000000000
C       8.239000000000001     -5.145000000000000      0.364000000000000
C       8.885000000000000     -4.782000000000000      1.738000000000000
O       9.839000000000000     -3.712000000000000      1.538000000000000
C       9.212999999999999     -2.451000000000000      1.193000000000000
C      10.401999999999999     -1.497000000000000      0.919000000000000
O       9.928000000000001     -0.143000000000000      0.987000000000000
C      10.832000000000001      0.884000000000000      0.590000000000000
C      10.670999999999999      1.039000000000000     -0.932000000000000
O       9.446000000000000      1.767000000000000     -1.217000000000000
C       9.426000000000000      2.315000000000000     -2.553000000000000
C       7.996000000000000      2.218000000000000     -3.148000000000000
O       7.875000000000000      1.085000000000000     -4.075000000000000
C       6.588000000000000      1.021000000000000     -4.692000000000000
C       6.609000000000000     -0.136000000000000     -5.745000000000000
H       5.317000000000000     -2.348000000000000     -4.447000000000000
H       5.186000000000000     -2.276000000000000     -6.208000000000000
H       7.385000000000000     -4.013000000000000     -4.937000000000000
H       6.606000000000000     -4.151000000000000     -6.559000000000000
H       6.939000000000000     -5.941000000000000     -4.526000000000000
H       5.559000000000000     -6.608000000000000     -5.558000000000000
H       5.022000000000000     -5.766000000000000     -2.583000000000000
H       4.075000000000000     -6.845000000000000     -3.641000000000000
H       7.642000000000000     -8.148999999999999     -1.734000000000000
H       7.560000000000000     -6.452000000000000     -2.278000000000000
H       5.969000000000000     -7.551000000000000      0.138000000000000
H       5.876000000000000     -5.938000000000000     -0.570000000000000
H       8.983000000000001     -5.088000000000000     -0.440000000000000
H       7.479000000000000     -4.448000000000000     -0.009000000000000
H       9.446999999999999     -5.656000000000000      2.088000000000000
H       8.121000000000000     -4.483000000000000      2.466000000000000
H       8.529000000000000     -2.158000000000000      1.999000000000000
H       8.617000000000001     -2.441000000000000      0.272000000000000
H      11.218999999999999     -1.589000000000000      1.646000000000000
H      10.782000000000000     -1.667000000000000     -0.096000000000000
H      11.845000000000001      0.645000000000000      0.936000000000000
H      10.548000000000000      1.849000000000000      1.027000000000000
H      10.634000000000000      0.057000000000000     -1.421000000000000
H      11.551000000000000      1.643000000000000     -1.181000000000000
H       9.821999999999999      3.338000000000000     -2.532000000000000
H      10.055000000000000      1.718000000000000     -3.224000000000000
H       7.264000000000000      2.171000000000000     -2.333000000000000
H       7.697000000000000      3.100000000000000     -3.727000000000000
H       6.394000000000000      2.015000000000000     -5.115000000000000
H       5.745000000000000      0.843000000000000     -4.014000000000000
H       7.243000000000000      0.176000000000000     -6.584000000000000
H       5.628000000000000     -0.111000000000000     -6.234000000000000
56

O      -1.539000000000000      1.059000000000000     -4.878000000000000
C      -1.057000000000000      0.803000000000000     -6.228000000000000
C      -0.081000000000000     -0.397000000000000     -6.267000000000000
O      -0.703000000000000     -1.564000000000000     -5.676000000000000
C      -0.057000000000000     -2.757000000000000     -5.723000000000000
C       1.078000000000000     -2.924000000000000     -4.567000000000000
O       0.560000000000000     -3.213000000000000     -3.308000000000000
C       1.542000000000000     -3.707000000000000     -2.389000000000000
C       0.812000000000000     -3.919000000000000     -0.978000000000000
O       1.809000000000000     -4.009000000000000      0.118000000000000
C       2.236000000000000     -2.762000000000000      0.718000000000000
C       1.240000000000000     -2.338000000000000      1.856000000000000
O       1.605000000000000     -1.084000000000000      2.421000000000000
C       0.807000000000000     -0.727000000000000      3.556000000000000
C       1.104000000000000      0.861000000000000      3.771000000000000
O      -0.052000000000000      1.641000000000000      3.330000000000000
C       0.091000000000000      3.014000000000000      2.844000000000000
C      -1.179000000000000      3.483000000000000      2.012000000000000
O      -1.045000000000000      3.179000000000000      0.591000000000000
C      -0.033000000000000      3.874000000000000     -0.210000000000000
C      -0.140000000000000      3.527000000000000     -1.726000000000000
O      -1.553000000000000      3.391000000000000     -2.104000000000000
C      -1.734000000000000      2.186000000000000     -2.890000000000000
C      -0.975000000000000      2.262000000000000     -4.290000000000000
H      -1.939000000000000      0.505000000000000     -6.808000000000000
H      -0.624000000000000      1.667000000000000     -6.747000000000000
H       0.808000000000000     -0.124000000000000     -5.685000000000000
H       0.193000000000000     -0.716000000000000     -7.280000000000000
H       0.418000000000000     -2.879000000000000     -6.705000000000000
H      -0.689000000000000     -3.645000000000000     -5.592000000000000
H       1.721000000000000     -3.751000000000000     -4.893000000000000
H       1.718000000000000     -2.039000000000000     -4.466000000000000
H       2.095000000000000     -4.625000000000000     -2.624000000000000
H       2.275000000000000     -2.902000000000000     -2.260000000000000
H       0.215000000000000     -4.838000000000000     -0.983000000000000
H       0.257000000000000     -3.014000000000000     -0.703000000000000
H       3.231000000000000     -2.928000000000000      1.149000000000000
H       2.354000000000000     -2.086000000000000     -0.138000000000000
H       1.254000000000000     -3.115000000000000      2.631000000000000
H       0.258000000000000     -2.184000000000000      1.393000000000000
H       1.114000000000000     -1.297000000000000      4.442000000000000
H      -0.250000000000000     -0.963000000000000      3.378000000000000
H       1.409000000000000      1.048000000000000      4.808000000000000
H       2.017000000000000      1.112000000000000      3.218000000000000
H       1.029000000000000      3.123000000000000      2.285000000000000
H       0.253000000000000      3.692000000000000      3.692000000000000
H      -1.439000000000000      4.547000000000000      2.085000000000000
H      -2.062000000000000      2.987000000000000      2.434000000000000
H      -0.182000000000000      4.954000000000000     -0.089000000000000
H       0.943000000000000      3.583000000000000      0.197000000000000
H       0.310000000000000      4.321000000000000     -2.336000000000000
H       0.374000000000000      2.578000000000000     -1.923000000000000
H      -2.800000000000000      1.993000000000000     -3.066000000000000
H      -1.429000000000000      1.333000000000000     -2.271000000000000
H       0.119000000000000      2.322000000000000     -4.251000000000000
H      -1.352000000000000      3.158000000000000     -4.800000000000000
56

O      -1.646000000000000      1.349000000000000     -4.335000000000000
C      -2.741000000000000      0.405000000000000     -4.413000000000000
C      -2.297000000000000     -0.884000000000000     -3.666000000000000
O      -3.373000000000000     -1.792000000000000     -3.419000000000000
C      -4.497000000000000     -1.317000000000000     -2.720000000000000
C      -4.877000000000000     -2.425000000000000     -1.681000000000000
O      -5.667000000000000     -1.831000000000000     -0.579000000000000
C      -6.086000000000000     -2.704000000000000      0.540000000000000
C      -5.117000000000000     -2.269000000000000      1.747000000000000
O      -5.575000000000000     -1.013000000000000      2.425000000000000
C      -4.923000000000000     -0.695000000000000      3.653000000000000
C      -4.011000000000000      0.491000000000000      3.560000000000000
O      -4.776000000000000      1.727000000000000      3.490000000000000
C      -4.037000000000000      3.029000000000000      3.608000000000000
C      -3.626000000000000      3.471000000000000      2.262000000000000
O      -3.148000000000000      4.856000000000000      2.353000000000000
C      -3.575000000000000      5.592000000000000      1.181000000000000
C      -2.463000000000000      5.616000000000000      0.117000000000000
O      -2.756000000000000      6.531000000000000     -0.969000000000000
C      -3.175000000000000      5.881000000000000     -2.200000000000000
C      -1.934000000000000      5.410000000000000     -2.961000000000000
O      -2.320000000000000      4.410000000000000     -4.034000000000000
C      -1.199000000000000      3.809000000000000     -4.602000000000000
C      -1.683000000000000      2.477000000000000     -5.256000000000000
H      -3.593000000000000      0.871000000000000     -3.903000000000000
H      -3.067000000000000      0.208000000000000     -5.442000000000000
H      -1.802000000000000     -0.698000000000000     -2.705000000000000
H      -1.667000000000000     -1.457000000000000     -4.357000000000000
H      -5.355000000000000     -0.978000000000000     -3.313000000000000
H      -4.149000000000000     -0.454000000000000     -2.139000000000000
H      -5.461000000000000     -3.148000000000000     -2.262000000000000
H      -3.985000000000000     -2.973000000000000     -1.352000000000000
H      -7.158000000000000     -2.628000000000000      0.760000000000000
H      -5.986000000000000     -3.765000000000000      0.278000000000000
H      -4.086000000000000     -2.144000000000000      1.396000000000000
H      -5.000000000000000     -3.073000000000000      2.485000000000000
H      -5.643000000000000     -0.544000000000000      4.466000000000000
H      -4.298000000000000     -1.560000000000000      3.909000000000000
H      -3.284000000000000      0.450000000000000      2.739000000000000
H      -3.486000000000000      0.579000000000000      4.520000000000000
H      -3.157000000000000      2.967000000000000      4.260000000000000
H      -4.695000000000000      3.763000000000000      4.090000000000000
H      -2.798000000000000      2.936000000000000      1.780000000000000
H      -4.526000000000000      3.397000000000000      1.639000000000000
H      -3.830000000000000      6.590000000000000      1.560000000000000
H      -4.520000000000000      5.225000000000000      0.762000000000000
H      -2.342000000000000      4.599000000000000     -0.277000000000000
H      -1.528000000000000      5.911000000000000      0.610000000000000
H      -3.830000000000000      5.060000000000000     -1.883000000000000
H      -3.718000000000000      6.608000000000000     -2.817000000000000
H      -1.406000000000000      6.271000000000000     -3.388000000000000
H      -1.167000000000000      5.054000000000000     -2.263000000000000
H      -0.469000000000000      3.531000000000000     -3.832000000000000
H      -0.676000000000000      4.445000000000000     -5.328000000000000
H      -1.059000000000000      2.246000000000000     -6.128000000000000
H      -2.700000000000000      2.628000000000000     -5.640000000000000
56

O       9.667000000000000      1.144000000000000     -2.310000000000000
C       9.356999999999999     -0.293000000000000     -2.422000000000000
C       8.218999999999999     -0.586000000000000     -1.394000000000000
O       8.694000000000001     -0.211000000000000     -0.030000000000000
C       8.148999999999999     -0.902000000000000      1.114000000000000
C       9.069000000000001     -0.655000000000000      2.334000000000000
O       8.340000000000000     -1.070000000000000      3.542000000000000
C       7.593000000000000     -0.004000000000000      4.151000000000000
C       8.477000000000000      1.138000000000000      4.706000000000000
O       7.919000000000000      1.826000000000000      5.839000000000000
C       8.672000000000001      3.082000000000000      6.130000000000000
C       7.820000000000000      4.077000000000000      6.970000000000000
O       6.956000000000000      4.768000000000000      6.126000000000000
C       7.279000000000000      5.883000000000000      5.352000000000000
C       6.053000000000000      6.354000000000000      4.543000000000000
O       5.989000000000000      5.781000000000000      3.187000000000000
C       6.932000000000000      6.337000000000000      2.236000000000000
C       6.332000000000000      6.328000000000000      0.818000000000000
O       7.479000000000000      6.149000000000000     -0.076000000000000
C       7.156000000000000      5.416000000000000     -1.242000000000000
C       8.520000000000000      5.037000000000000     -1.905000000000000
O       8.308000000000000      4.322000000000000     -3.147000000000000
C       9.365000000000000      3.328000000000000     -3.405000000000000
C       8.869999999999999      1.902000000000000     -3.199000000000000
H       9.159000000000001     -0.637000000000000     -3.445000000000000
H      10.228999999999999     -0.900000000000000     -2.145000000000000
H       8.023999999999999     -1.663000000000000     -1.332000000000000
H       7.304000000000000     -0.057000000000000     -1.688000000000000
H       8.082000000000001     -1.992000000000000      1.016000000000000
H       7.122000000000000     -0.613000000000000      1.369000000000000
H       9.906000000000001     -1.361000000000000      2.271000000000000
H       9.390000000000001      0.394000000000000      2.351000000000000
H       6.967000000000000      0.437000000000000      3.366000000000000
H       7.033000000000000     -0.454000000000000      4.981000000000000
H       8.750999999999999      1.856000000000000      3.923000000000000
H       9.452999999999999      0.676000000000000      4.899000000000000
H       9.529999999999999      2.770000000000000      6.739000000000000
H       8.967000000000001      3.588000000000000      5.203000000000000
H       8.456000000000000      4.724000000000000      7.587000000000000
H       7.332000000000000      3.509000000000000      7.772000000000000
H       8.098000000000001      5.659000000000000      4.657000000000000
H       7.656000000000000      6.646000000000000      6.045000000000000
H       5.138000000000000      5.931000000000000      4.973000000000000
H       5.937000000000000      7.445000000000000      4.525000000000000
H       7.864000000000000      5.768000000000000      2.337000000000000
H       7.056000000000000      7.408000000000000      2.439000000000000
H       5.750000000000000      7.242000000000000      0.652000000000000
H       5.637000000000000      5.481000000000000      0.755000000000000
H       6.557000000000000      4.518000000000000     -1.046000000000000
H       6.557000000000000      6.060000000000000     -1.898000000000000
H       9.022000000000000      6.003000000000000     -2.045000000000000
H       9.190000000000000      4.590000000000000     -1.160000000000000
H      10.167999999999999      3.650000000000000     -2.731000000000000
H       9.769000000000000      3.474000000000000     -4.414000000000000
H       8.834000000000000      1.493000000000000     -4.216000000000000
H       7.821000000000000      1.933000000000000     -2.877000000000000
56

O       5.216000000000000     -1.543000000000000      2.568000000000000
C       6.038000000000000     -1.350000000000000      3.742000000000000
C       5.280000000000000     -0.466000000000000      4.784000000000000
O       6.116000000000000      0.678000000000000      5.097000000000000
C       5.507000000000000      1.905000000000000      5.479000000000000
C       6.503000000000000      3.075000000000000      5.384000000000000
O       5.744000000000000      4.283000000000000      5.220000000000000
C       5.491000000000000      4.709000000000000      3.854000000000000
C       6.691000000000000      5.466000000000000      3.237000000000000
O       6.298000000000000      6.778000000000000      2.692000000000000
C       5.791000000000000      6.745000000000000      1.381000000000000
C       6.971000000000000      6.910000000000000      0.360000000000000
O       6.350000000000000      6.476000000000000     -0.885000000000000
C       7.224000000000000      6.567000000000000     -2.019000000000000
C       6.880000000000000      5.527000000000000     -3.136000000000000
O       7.545000000000000      4.287000000000000     -2.942000000000000
C       7.215000000000000      3.266000000000000     -3.857000000000000
C       5.885000000000000      2.627000000000000     -3.224000000000000
O       6.298000000000000      1.438000000000000     -2.448000000000000
C       5.206000000000000      0.498000000000000     -2.047000000000000
C       5.873000000000000     -0.513000000000000     -1.028000000000000
O       4.877000000000000     -1.124000000000000     -0.289000000000000
C       5.191000000000000     -2.468000000000000      0.263000000000000
C       5.972000000000000     -2.189000000000000      1.541000000000000
H       6.223000000000000     -2.268000000000000      4.313000000000000
H       7.043000000000000     -1.031000000000000      3.440000000000000
H       5.066000000000000     -1.059000000000000      5.681000000000000
H       4.341000000000000     -0.129000000000000      4.329000000000000
H       5.034000000000000      1.924000000000000      6.469000000000000
H       4.793000000000000      2.171000000000000      4.690000000000000
H       7.032000000000000      3.064000000000000      6.345000000000000
H       7.294000000000000      3.002000000000000      4.627000000000000
H       5.241000000000000      3.841000000000000      3.231000000000000
H       4.645000000000000      5.405000000000000      3.908000000000000
H       7.196000000000000      4.865000000000000      2.471000000000000
H       7.503000000000000      5.569000000000000      3.967000000000000
H       5.329000000000000      5.755000000000000      1.276000000000000
H       5.016000000000000      7.491000000000000      1.167000000000000
H       7.872000000000000      6.321000000000000      0.575000000000000
H       7.262000000000000      7.960000000000000      0.229000000000000
H       8.265000000000001      6.404000000000000     -1.713000000000000
H       7.283000000000000      7.564000000000000     -2.474000000000000
H       5.792000000000000      5.403000000000000     -3.196000000000000
H       7.115000000000000      5.891000000000000     -4.144000000000000
H       7.973000000000000      2.486000000000000     -3.720000000000000
H       7.048000000000000      3.591000000000000     -4.892000000000000
H       5.286000000000000      2.257000000000000     -4.066000000000000
H       5.310000000000000      3.433000000000000     -2.751000000000000
H       4.304000000000000      0.964000000000000     -1.632000000000000
H       4.910000000000000     -0.005000000000000     -2.976000000000000
H       6.498000000000000     -1.183000000000000     -1.631000000000000
H       6.554000000000000      0.005000000000000     -0.341000000000000
H       5.787000000000000     -3.081000000000000     -0.425000000000000
H       4.233000000000000     -2.925000000000000      0.538000000000000
H       6.883000000000000     -1.644000000000000      1.266000000000000
H       6.297000000000000     -3.135000000000000      1.993000000000000
56

O       1.530000000000000     -5.347000000000000      2.367000000000000
C       2.705000000000000     -6.010000000000000      2.860000000000000
C       3.615000000000000     -4.975000000000000      3.550000000000000
O       3.767000000000000     -3.767000000000000      2.723000000000000
C       4.859000000000000     -2.852000000000000      2.991000000000000
C       6.128000000000000     -3.256000000000000      2.142000000000000
O       7.055000000000000     -2.134000000000000      2.214000000000000
C       7.784000000000000     -1.770000000000000      0.936000000000000
C       7.238000000000000     -0.450000000000000      0.185000000000000
O       7.506000000000000     -0.534000000000000     -1.239000000000000
C       7.147000000000000      0.579000000000000     -2.017000000000000
C       6.856000000000000      0.206000000000000     -3.514000000000000
O       5.404000000000000     -0.102000000000000     -3.706000000000000
C       4.879000000000000     -0.621000000000000     -4.975000000000000
C       5.314000000000000     -2.143000000000000     -5.113000000000000
O       4.179000000000000     -2.972000000000000     -5.467000000000000
C       3.063000000000000     -3.228000000000000     -4.629000000000000
C       2.750000000000000     -4.708000000000000     -4.367000000000000
O       1.379000000000000     -4.831000000000000     -4.080000000000000
C       0.957000000000000     -4.567000000000000     -2.680000000000000
C       0.910000000000000     -5.822000000000000     -1.871000000000000
O       0.508000000000000     -5.523000000000000     -0.494000000000000
C       0.768000000000000     -6.666000000000000      0.389000000000000
C       0.536000000000000     -6.267000000000000      1.914000000000000
H       2.380000000000000     -6.771000000000000      3.581000000000000
H       3.309000000000000     -6.448000000000000      2.056000000000000
H       4.597000000000000     -5.411000000000000      3.775000000000000
H       3.053000000000000     -4.686000000000000      4.447000000000000
H       5.127000000000000     -2.910000000000000      4.053000000000000
H       4.552000000000000     -1.879000000000000      2.590000000000000
H       6.563000000000000     -4.210000000000000      2.466000000000000
H       5.716000000000000     -3.422000000000000      1.139000000000000
H       8.848000000000001     -1.622000000000000      1.161000000000000
H       7.685000000000000     -2.541000000000000      0.163000000000000
H       7.772000000000000      0.359000000000000      0.699000000000000
H       6.157000000000000     -0.377000000000000      0.359000000000000
H       6.292000000000000      1.104000000000000     -1.574000000000000
H       7.986000000000000      1.274000000000000     -1.890000000000000
H       7.454000000000000     -0.647000000000000     -3.856000000000000
H       7.108000000000000      1.068000000000000     -4.144000000000000
H       5.204000000000000     -0.051000000000000     -5.854000000000000
H       3.793000000000000     -0.496000000000000     -4.877000000000000
H       6.119000000000000     -2.226000000000000     -5.853000000000000
H       5.711000000000000     -2.568000000000000     -4.183000000000000
H       2.206000000000000     -2.733000000000000     -5.102000000000000
H       3.166000000000000     -2.662000000000000     -3.694000000000000
H       3.264000000000000     -5.044000000000000     -3.458000000000000
H       3.041000000000000     -5.264000000000000     -5.267000000000000
H       1.727000000000000     -3.885000000000000     -2.298000000000000
H      -0.041000000000000     -4.115000000000000     -2.723000000000000
H       0.177000000000000     -6.493000000000000     -2.335000000000000
H       1.919000000000000     -6.253000000000000     -1.884000000000000
H       1.814000000000000     -6.983000000000000      0.294000000000000
H       0.063000000000000     -7.438000000000000      0.057000000000000
H       0.333000000000000     -7.078000000000000      2.625000000000000
H      -0.356000000000000     -5.652000000000000      2.089000000000000
56

O      -5.890000000000000      4.974000000000000      2.155000000000000
C      -5.964000000000000      4.083000000000000      3.328000000000000
C      -4.677000000000000      3.266000000000000      3.395000000000000
O      -3.671000000000000      4.201000000000000      3.783000000000000
C      -2.342000000000000      3.734000000000000      3.882000000000000
C      -1.342000000000000      4.875000000000000      3.897000000000000
O       0.059000000000000      4.370000000000000      4.138000000000000
C       0.720000000000000      4.080000000000000      2.969000000000000
C       1.534000000000000      5.312000000000000      2.556000000000000
O       2.272000000000000      5.065000000000000      1.350000000000000
C       2.752000000000000      6.138000000000000      0.531000000000000
C       3.335000000000000      5.613000000000000     -0.811000000000000
O       2.417000000000000      4.706000000000000     -1.473000000000000
C       2.331000000000000      4.934000000000000     -2.938000000000000
C       1.125000000000000      4.205000000000000     -3.556000000000000
O       0.125000000000000      5.171000000000000     -3.900000000000000
C      -1.158000000000000      4.972000000000000     -3.295000000000000
C      -1.952000000000000      6.306000000000000     -3.057000000000000
O      -3.179000000000000      6.082000000000000     -2.358000000000000
C      -4.342000000000000      5.565000000000000     -3.069000000000000
C      -5.164000000000000      4.648000000000000     -2.082000000000000
O      -6.372000000000000      5.276000000000000     -1.636000000000000
C      -6.261000000000000      5.679000000000000     -0.245000000000000
C      -6.296000000000000      4.496000000000000      0.865000000000000
H      -5.780000000000000      4.784000000000000      4.151000000000000
H      -6.904000000000000      3.551000000000000      3.517000000000000
H      -4.400000000000000      2.808000000000000      2.438000000000000
H      -4.861000000000000      2.527000000000000      4.185000000000000
H      -2.082000000000000      3.124000000000000      3.008000000000000
H      -2.186000000000000      3.122000000000000      4.779000000000000
H      -1.350000000000000      5.498000000000000      2.994000000000000
H      -1.719000000000000      5.471000000000000      4.737000000000000
H       1.501000000000000      3.335000000000000      3.168000000000000
H       0.064000000000000      3.813000000000000      2.132000000000000
H       2.248000000000000      5.612000000000000      3.333000000000000
H       0.850000000000000      6.167000000000000      2.484000000000000
H       1.851000000000000      6.740000000000000      0.361000000000000
H       3.524000000000000      6.778000000000000      0.976000000000000
H       4.251000000000000      5.019000000000000     -0.704000000000000
H       3.615000000000000      6.465000000000000     -1.443000000000000
H       3.226000000000000      4.573000000000000     -3.461000000000000
H       2.241000000000000      5.975000000000000     -3.273000000000000
H       1.402000000000000      3.713000000000000     -4.497000000000000
H       0.831000000000000      3.378000000000000     -2.897000000000000
H      -0.993000000000000      4.489000000000000     -2.324000000000000
H      -1.790000000000000      4.341000000000000     -3.932000000000000
H      -2.168000000000000      6.791000000000000     -4.017000000000000
H      -1.280000000000000      6.992000000000000     -2.527000000000000
H      -4.885000000000000      6.420000000000000     -3.490000000000000
H      -3.969000000000000      4.946000000000000     -3.894000000000000
H      -5.536000000000000      3.795000000000000     -2.663000000000000
H      -4.575000000000000      4.124000000000000     -1.318000000000000
H      -7.047000000000000      6.413000000000000     -0.025000000000000
H      -5.384000000000000      6.310000000000000     -0.055000000000000
H      -5.593000000000000      3.722000000000000      0.534000000000000
H      -7.220000000000000      3.905000000000000      0.822000000000000
56

O       1.147000000000000     -2.260000000000000      4.264000000000000
C       2.214000000000000     -1.481000000000000      4.834000000000000
C       3.479000000000000     -1.575000000000000      4.032000000000000
O       4.430000000000000     -0.576000000000000      4.532000000000000
C       4.321000000000000      0.753000000000000      3.905000000000000
C       5.253000000000000      0.745000000000000      2.680000000000000
O       5.715000000000000      2.073000000000000      2.288000000000000
C       4.829000000000000      2.890000000000000      1.507000000000000
C       4.898000000000000      2.583000000000000     -0.002000000000000
O       3.679000000000000      3.014000000000000     -0.666000000000000
C       3.957000000000000      3.137000000000000     -2.081000000000000
C       3.465000000000000      1.903000000000000     -2.929000000000000
O       2.073000000000000      1.584000000000000     -2.657000000000000
C       1.644000000000000      0.229000000000000     -3.018000000000000
C       0.309000000000000     -0.147000000000000     -2.346000000000000
O       0.295000000000000     -1.563000000000000     -2.228000000000000
C      -1.052000000000000     -2.176000000000000     -2.281000000000000
C      -1.395000000000000     -2.778000000000000     -0.937000000000000
O      -0.432000000000000     -3.824000000000000     -0.612000000000000
C      -0.881000000000000     -4.920000000000000      0.289000000000000
C      -1.074000000000000     -4.438000000000000      1.774000000000000
O       0.162000000000000     -4.622000000000000      2.520000000000000
C       0.015000000000000     -4.342000000000000      3.929000000000000
C       1.291000000000000     -3.641000000000000      4.423000000000000
H       1.925000000000000     -0.427000000000000      4.936000000000000
H       2.495000000000000     -1.779000000000000      5.851000000000000
H       3.283000000000000     -1.594000000000000      2.953000000000000
H       3.739000000000000     -2.602000000000000      4.319000000000000
H       4.710000000000000      1.421000000000000      4.683000000000000
H       3.260000000000000      1.010000000000000      3.800000000000000
H       6.130000000000000      0.138000000000000      2.936000000000000
H       4.828000000000000      0.163000000000000      1.853000000000000
H       3.758000000000000      2.846000000000000      1.743000000000000
H       5.210000000000000      3.907000000000000      1.656000000000000
H       5.155000000000000      1.539000000000000     -0.217000000000000
H       5.776000000000000      3.151000000000000     -0.337000000000000
H       3.390000000000000      4.010000000000000     -2.428000000000000
H       5.019000000000000      3.346000000000000     -2.260000000000000
H       4.115000000000000      1.046000000000000     -2.716000000000000
H       3.580000000000000      2.038000000000000     -4.012000000000000
H       2.436000000000000     -0.487000000000000     -2.763000000000000
H       1.437000000000000      0.124000000000000     -4.090000000000000
H       0.341000000000000      0.407000000000000     -1.400000000000000
H      -0.516000000000000      0.212000000000000     -2.973000000000000
H      -1.122000000000000     -3.004000000000000     -2.998000000000000
H      -1.787000000000000     -1.420000000000000     -2.586000000000000
H      -2.419000000000000     -3.170000000000000     -0.963000000000000
H      -1.337000000000000     -1.965000000000000     -0.203000000000000
H      -1.824000000000000     -5.269000000000000     -0.150000000000000
H      -0.125000000000000     -5.715000000000000      0.271000000000000
H      -1.345000000000000     -3.376000000000000      1.793000000000000
H      -1.797000000000000     -5.070000000000000      2.305000000000000
H      -0.110000000000000     -5.250000000000000      4.531000000000000
H      -0.863000000000000     -3.724000000000000      4.152000000000000
H       2.092000000000000     -4.089000000000000      3.822000000000000
H       1.523000000000000     -3.982000000000000      5.440000000000000
56

O       2.922000000000000     -1.551000000000000      3.542000000000000
C       4.302000000000000     -1.142000000000000      3.110000000000000
C       4.477000000000000      0.398000000000000      3.440000000000000
O       5.851000000000000      0.731000000000000      3.183000000000000
C       6.285000000000000      0.967000000000000      1.868000000000000
C       6.019000000000000      2.496000000000000      1.639000000000000
O       6.965000000000000      2.961000000000000      0.689000000000000
C       6.726000000000000      2.595000000000000     -0.721000000000000
C       5.943000000000000      3.757000000000000     -1.434000000000000
O       5.455000000000000      3.260000000000000     -2.690000000000000
C       4.584000000000000      4.200000000000000     -3.494000000000000
C       3.040000000000000      3.823000000000000     -3.316000000000000
O       2.831000000000000      2.549000000000000     -4.046000000000000
C       1.567000000000000      2.036000000000000     -3.589000000000000
C       1.289000000000000      0.642000000000000     -4.101000000000000
O      -0.006000000000000      0.381000000000000     -3.534000000000000
C      -0.004000000000000     -0.107000000000000     -2.214000000000000
C       0.462000000000000     -1.669000000000000     -2.109000000000000
O       0.007000000000000     -2.321000000000000     -0.940000000000000
C       0.651000000000000     -3.622000000000000     -0.597000000000000
C       0.319000000000000     -4.048000000000000      0.857000000000000
O       1.149000000000000     -3.224000000000000      1.796000000000000
C       2.426000000000000     -3.689000000000000      2.411000000000000
C       2.691000000000000     -2.945000000000000      3.768000000000000
H       5.088000000000000     -1.682000000000000      3.653000000000000
H       4.316000000000000     -1.249000000000000      2.019000000000000
H       4.285000000000000      0.619000000000000      4.497000000000000
H       3.787000000000000      0.961000000000000      2.799000000000000
H       5.786000000000000      0.328000000000000      1.129000000000000
H       7.350000000000000      0.707000000000000      1.824000000000000
H       4.983000000000000      2.627000000000000      1.301000000000000
H       6.234000000000000      3.038000000000000      2.569000000000000
H       7.638000000000000      2.238000000000000     -1.215000000000000
H       6.167000000000000      1.653000000000000     -0.767000000000000
H       6.636000000000000      4.605000000000000     -1.491000000000000
H       5.119000000000000      4.034000000000000     -0.765000000000000
H       4.731000000000000      5.220000000000000     -3.119000000000000
H       4.833000000000000      4.045000000000000     -4.551000000000000
H       2.460000000000000      4.698000000000000     -3.633000000000000
H       2.910000000000000      3.692000000000000     -2.235000000000000
H       0.719000000000000      2.619000000000000     -3.967000000000000
H       1.456000000000000      2.170000000000000     -2.505000000000000
H       1.228000000000000      0.676000000000000     -5.195000000000000
H       2.103000000000000     -0.031000000000000     -3.804000000000000
H      -1.077000000000000     -0.125000000000000     -1.986000000000000
H       0.517000000000000      0.494000000000000     -1.460000000000000
H       1.547000000000000     -1.830000000000000     -2.133000000000000
H      -0.017000000000000     -2.116000000000000     -2.988000000000000
H       0.216000000000000     -4.427000000000000     -1.202000000000000
H       1.743000000000000     -3.599000000000000     -0.696000000000000
H      -0.710000000000000     -3.860000000000000      1.190000000000000
H       0.595000000000000     -5.096000000000000      1.027000000000000
H       3.269000000000000     -3.453000000000000      1.750000000000000
H       2.423000000000000     -4.769000000000000      2.603000000000000
H       3.573000000000000     -3.343000000000000      4.284000000000000
H       1.781000000000000     -3.063000000000000      4.370000000000000
56

O      -5.993000000000000      1.818000000000000      3.846000000000000
C      -6.042000000000000      2.608000000000000      5.061000000000000
C      -5.183000000000000      3.841000000000000      5.101000000000000
O      -5.694000000000000      4.855000000000000      4.184000000000000
C      -4.761000000000000      5.708000000000000      3.490000000000000
C      -5.435000000000000      6.653000000000000      2.477000000000000
O      -4.469000000000000      7.190000000000000      1.537000000000000
C      -4.342000000000000      6.519000000000000      0.317000000000000
C      -5.302000000000000      7.088000000000000     -0.746000000000000
O      -5.183000000000000      6.534000000000000     -2.081000000000000
C      -5.775000000000000      7.389000000000000     -3.104000000000000
C      -5.917000000000000      6.709000000000000     -4.461000000000000
O      -7.049000000000000      5.783000000000000     -4.492000000000000
C      -7.013000000000000      4.773000000000000     -5.482000000000000
C      -8.270000000000000      3.818000000000000     -5.202000000000000
O      -7.771000000000000      2.549000000000000     -4.759000000000000
C      -8.515000000000001      1.953000000000000     -3.700000000000000
C      -7.682000000000000      0.792000000000000     -3.077000000000000
O      -8.558999999999999      0.098000000000000     -2.162000000000000
C      -8.760999999999999      0.556000000000000     -0.766000000000000
C      -7.500000000000000     -0.033000000000000      0.067000000000000
O      -7.614000000000000      0.545000000000000      1.386000000000000
C      -6.882000000000000     -0.080000000000000      2.415000000000000
C      -7.102000000000000      0.800000000000000      3.736000000000000
H      -7.064000000000000      2.979000000000000      5.205000000000000
H      -5.778000000000000      1.914000000000000      5.868000000000000
H      -4.179000000000000      3.533000000000000      4.785000000000000
H      -5.265000000000000      4.161000000000000      6.147000000000000
H      -4.123000000000000      5.048000000000000      2.889000000000000
H      -4.051000000000000      6.175000000000000      4.184000000000000
H      -6.194000000000000      6.099000000000000      1.910000000000000
H      -5.938000000000000      7.433000000000000      3.062000000000000
H      -3.325000000000000      6.521000000000000     -0.095000000000000
H      -4.674000000000000      5.480000000000000      0.440000000000000
H      -5.111000000000000      8.154999999999999     -0.911000000000000
H      -6.327000000000000      6.938000000000000     -0.383000000000000
H      -6.764000000000000      7.712000000000000     -2.755000000000000
H      -5.213000000000000      8.316000000000001     -3.274000000000000
H      -5.011000000000000      6.116000000000000     -4.641000000000000
H      -5.944000000000000      7.408000000000000     -5.306000000000000
H      -6.042000000000000      4.272000000000000     -5.579000000000000
H      -7.309000000000000      5.232000000000000     -6.433000000000000
H      -8.781000000000001      4.324000000000000     -4.373000000000000
H      -8.955000000000000      3.753000000000000     -6.056000000000000
H      -9.452000000000000      1.572000000000000     -4.123000000000000
H      -8.743000000000000      2.678000000000000     -2.908000000000000
H      -6.811000000000000      1.256000000000000     -2.599000000000000
H      -7.386000000000000      0.128000000000000     -3.899000000000000
H      -8.704000000000001      1.651000000000000     -0.731000000000000
H      -9.759000000000000      0.320000000000000     -0.375000000000000
H      -7.636000000000000     -1.121000000000000      0.091000000000000
H      -6.558000000000000      0.231000000000000     -0.429000000000000
H      -5.819000000000000     -0.004000000000000      2.156000000000000
H      -7.288000000000000     -1.094000000000000      2.523000000000000
H      -7.059000000000000      0.135000000000000      4.607000000000000
H      -8.095000000000001      1.265000000000000      3.685000000000000
56

O      -0.390000000000000     -0.748000000000000      4.332000000000000
C       0.315000000000000     -0.367000000000000      5.541000000000000
C       1.021000000000000      1.003000000000000      5.361000000000000
O      -0.056000000000000      1.903000000000000      4.946000000000000
C       0.554000000000000      3.254000000000000      4.757000000000000
C      -0.166000000000000      3.989000000000000      3.622000000000000
O       0.791000000000000      4.464000000000000      2.642000000000000
C       1.170000000000000      3.658000000000000      1.556000000000000
C       1.560000000000000      4.574000000000000      0.349000000000000
O       2.111000000000000      3.742000000000000     -0.662000000000000
C       1.286000000000000      3.466000000000000     -1.852000000000000
C       1.811000000000000      2.292000000000000     -2.694000000000000
O       0.780000000000000      1.751000000000000     -3.513000000000000
C       1.190000000000000      0.509000000000000     -4.171000000000000
C      -0.071000000000000     -0.135000000000000     -4.990000000000000
O      -0.730000000000000     -0.918000000000000     -3.946000000000000
C      -0.287000000000000     -2.271000000000000     -3.582000000000000
C      -1.094000000000000     -2.960000000000000     -2.488000000000000
O      -0.156000000000000     -3.371000000000000     -1.466000000000000
C      -0.846000000000000     -3.572000000000000     -0.234000000000000
C       0.139000000000000     -3.803000000000000      0.857000000000000
O      -0.646000000000000     -3.738000000000000      2.092000000000000
C      -0.965000000000000     -2.453000000000000      2.616000000000000
C       0.019000000000000     -1.999000000000000      3.691000000000000
H      -0.405000000000000     -0.312000000000000      6.367000000000000
H       1.041000000000000     -1.081000000000000      5.948000000000000
H       1.797000000000000      1.105000000000000      4.591000000000000
H       1.387000000000000      1.432000000000000      6.301000000000000
H       1.637000000000000      3.180000000000000      4.599000000000000
H       0.312000000000000      3.751000000000000      5.705000000000000
H      -0.880000000000000      3.351000000000000      3.086000000000000
H      -0.642000000000000      4.878000000000000      4.053000000000000
H       1.962000000000000      2.931000000000000      1.776000000000000
H       0.275000000000000      3.091000000000000      1.270000000000000
H       2.279000000000000      5.366000000000000      0.594000000000000
H       0.658000000000000      5.024000000000000     -0.086000000000000
H       0.238000000000000      3.256000000000000     -1.603000000000000
H       1.281000000000000      4.401000000000000     -2.425000000000000
H       2.091000000000000      1.451000000000000     -2.048000000000000
H       2.665000000000000      2.659000000000000     -3.276000000000000
H       1.589000000000000     -0.195000000000000     -3.431000000000000
H       1.880000000000000      0.791000000000000     -4.977000000000000
H      -0.718000000000000      0.719000000000000     -5.228000000000000
H       0.283000000000000     -0.837000000000000     -5.754000000000000
H       0.774000000000000     -2.331000000000000     -3.310000000000000
H      -0.427000000000000     -2.845000000000000     -4.507000000000000
H      -1.498000000000000     -3.850000000000000     -2.984000000000000
H      -1.947000000000000     -2.359000000000000     -2.146000000000000
H      -1.445000000000000     -2.695000000000000      0.042000000000000
H      -1.493000000000000     -4.444000000000000     -0.391000000000000
H       0.683000000000000     -4.749000000000000      0.738000000000000
H       0.780000000000000     -2.920000000000000      0.746000000000000
H      -1.965000000000000     -2.569000000000000      3.052000000000000
H      -1.107000000000000     -1.682000000000000      1.849000000000000
H       0.967000000000000     -1.787000000000000      3.181000000000000
H       0.156000000000000     -2.805000000000000      4.423000000000000
56

O      -6.333000000000000      4.414000000000000     -0.717000000000000
C      -6.740000000000000      5.774000000000000     -0.639000000000000
C      -6.051000000000000      6.539000000000000      0.554000000000000
O      -4.656000000000000      6.914000000000000      0.198000000000000
C      -4.488000000000000      8.061999999999999     -0.636000000000000
C      -2.928000000000000      8.286000000000000     -0.690000000000000
O      -2.600000000000000      9.109999999999999     -1.783000000000000
C      -1.477000000000000      9.965999999999999     -1.506000000000000
C      -0.282000000000000      9.573000000000000     -2.407000000000000
O      -0.727000000000000      9.324999999999999     -3.780000000000000
C       0.018000000000000      9.992000000000001     -4.788000000000000
C      -0.395000000000000      9.637000000000000     -6.241000000000000
O      -0.204000000000000      8.189000000000000     -6.362000000000000
C      -0.761000000000000      7.622000000000000     -7.553000000000000
C      -0.399000000000000      6.089000000000000     -7.535000000000000
O      -1.279000000000000      5.320000000000000     -6.653000000000000
C      -2.572000000000000      5.160000000000000     -7.241000000000000
C      -2.855000000000000      3.597000000000000     -7.274000000000000
O      -3.172000000000000      3.121000000000000     -6.000000000000000
C      -4.607000000000000      3.307000000000000     -5.636000000000000
C      -4.911000000000000      2.339000000000000     -4.450000000000000
O      -6.038000000000000      2.979000000000000     -3.724000000000000
C      -6.129000000000000      2.589000000000000     -2.358000000000000
C      -7.111000000000000      3.546000000000000     -1.594000000000000
H      -6.565000000000000      6.337000000000000     -1.564000000000000
H      -7.811000000000000      5.817000000000000     -0.405000000000000
H      -6.005000000000000      5.914000000000000      1.455000000000000
H      -6.583000000000000      7.422000000000000      0.929000000000000
H      -5.031000000000000      8.906000000000001     -0.192000000000000
H      -4.840000000000000      7.939000000000000     -1.667000000000000
H      -2.572000000000000      8.782000000000000      0.222000000000000
H      -2.347000000000000      7.358000000000000     -0.767000000000000
H      -1.631000000000000     11.032000000000000     -1.713000000000000
H      -1.203000000000000     10.029999999999999     -0.446000000000000
H       0.214000000000000      8.647000000000000     -2.089000000000000
H       0.446000000000000     10.390000000000001     -2.337000000000000
H      -0.144000000000000     11.071000000000000     -4.671000000000000
H       1.067000000000000      9.702000000000000     -4.649000000000000
H       0.192000000000000     10.141999999999999     -7.018000000000000
H      -1.451000000000000      9.912000000000001     -6.356000000000000
H      -0.197000000000000      8.111000000000001     -8.356000000000000
H      -1.820000000000000      7.877000000000000     -7.683000000000000
H      -0.530000000000000      5.757000000000000     -8.571999999999999
H       0.675000000000000      5.931000000000000     -7.374000000000000
H      -2.775000000000000      5.666000000000000     -8.193000000000000
H      -3.308000000000000      5.520000000000000     -6.511000000000000
H      -2.014000000000000      3.048000000000000     -7.714000000000000
H      -3.661000000000000      3.336000000000000     -7.971000000000000
H      -4.689000000000000      4.307000000000000     -5.192000000000000
H      -5.306000000000000      3.100000000000000     -6.456000000000000
H      -5.289000000000000      1.358000000000000     -4.764000000000000
H      -3.971000000000000      2.308000000000000     -3.886000000000000
H      -5.104000000000000      2.556000000000000     -1.967000000000000
H      -6.494000000000000      1.555000000000000     -2.388000000000000
H      -7.809000000000000      2.940000000000000     -1.003000000000000
H      -7.648000000000000      4.184000000000000     -2.307000000000000
56

O      -4.093000000000000      9.233000000000001     -0.046000000000000
C      -3.034000000000000      8.757999999999999     -0.896000000000000
C      -3.009000000000000      9.500999999999999     -2.224000000000000
O      -2.056000000000000      8.920999999999999     -3.109000000000000
C      -2.322000000000000      7.590000000000000     -3.625000000000000
C      -2.292000000000000      7.829000000000000     -5.137000000000000
O      -3.052000000000000      6.812000000000000     -5.746000000000000
C      -2.891000000000000      6.752000000000000     -7.204000000000000
C      -3.716000000000000      5.557000000000000     -7.660000000000000
O      -5.065000000000000      5.727000000000000     -7.229000000000000
C      -5.811000000000000      4.473000000000000     -7.163000000000000
C      -7.258000000000000      4.897000000000000     -6.745000000000000
O      -7.868000000000000      3.658000000000000     -6.330000000000000
C      -7.722000000000000      3.303000000000000     -4.938000000000000
C      -8.807000000000000      3.980000000000000     -4.072000000000000
O      -8.369999999999999      3.792000000000000     -2.647000000000000
C      -9.356999999999999      4.305000000000000     -1.733000000000000
C      -9.119999999999999      3.876000000000000     -0.282000000000000
O      -8.247000000000000      4.864000000000000      0.358000000000000
C      -8.827000000000000      5.952000000000000      1.042000000000000
C      -7.749000000000000      6.849000000000000      1.561000000000000
O      -7.469000000000000      7.910000000000000      0.662000000000000
C      -6.241000000000000      8.637000000000000      0.918000000000000
C      -5.275000000000000      8.457000000000001     -0.238000000000000
H      -2.118000000000000      8.955000000000000     -0.326000000000000
H      -3.031000000000000      7.662000000000000     -0.946000000000000
H      -2.727000000000000     10.532000000000000     -1.979000000000000
H      -3.995000000000000      9.433000000000000     -2.700000000000000
H      -3.310000000000000      7.174000000000000     -3.392000000000000
H      -1.544000000000000      6.876000000000000     -3.327000000000000
H      -2.726000000000000      8.803000000000001     -5.394000000000000
H      -1.265000000000000      7.872000000000000     -5.519000000000000
H      -3.105000000000000      7.699000000000000     -7.714000000000000
H      -1.835000000000000      6.498000000000000     -7.362000000000000
H      -3.282000000000000      4.624000000000000     -7.279000000000000
H      -3.761000000000000      5.508000000000000     -8.755000000000001
H      -5.904000000000000      3.875000000000000     -8.077000000000000
H      -5.336000000000000      3.895000000000000     -6.360000000000000
H      -7.683000000000000      5.328000000000000     -7.660000000000000
H      -7.286000000000000      5.618000000000000     -5.918000000000000
H      -6.734000000000000      3.657000000000000     -4.618000000000000
H      -7.766000000000000      2.217000000000000     -4.791000000000000
H      -8.949999999999999      5.049000000000000     -4.274000000000000
H      -9.781000000000001      3.531000000000000     -4.302000000000000
H     -10.359999999999999      4.089000000000000     -2.119000000000000
H      -9.327000000000000      5.400000000000000     -1.796000000000000
H      -8.611000000000001      2.905000000000000     -0.244000000000000
H     -10.045000000000000      3.797000000000000      0.303000000000000
H      -9.526999999999999      6.468000000000000      0.373000000000000
H      -9.266000000000000      5.584000000000000      1.977000000000000
H      -8.151999999999999      7.298000000000000      2.477000000000000
H      -6.863000000000000      6.253000000000000      1.812000000000000
H      -5.724000000000000      8.292999999999999      1.823000000000000
H      -6.382000000000000      9.718000000000000      1.041000000000000
H      -5.826000000000000      8.625999999999999     -1.171000000000000
H      -4.973000000000000      7.413000000000000     -0.388000000000000
56

O       0.507000000000000      8.210000000000001      5.403000000000000
C       1.470000000000000      8.558000000000000      4.402000000000000
C       1.328000000000000      7.729000000000000      3.182000000000000
O       0.116000000000000      8.098000000000001      2.468000000000000
C       0.234000000000000      9.263999999999999      1.670000000000000
C      -1.056000000000000      9.480000000000000      0.844000000000000
O      -2.257000000000000      9.904000000000000      1.564000000000000
C      -3.416000000000000     10.007000000000000      0.729000000000000
C      -4.464000000000000     10.798999999999999      1.526000000000000
O      -5.798000000000000     10.632000000000000      0.978000000000000
C      -6.816000000000000      9.872999999999999      1.696000000000000
C      -7.532000000000000     10.818000000000000      2.715000000000000
O      -8.592000000000001     10.140000000000001      3.481000000000000
C      -8.243000000000000      8.968999999999999      4.333000000000000
C      -7.485000000000000      9.472000000000000      5.560000000000000
O      -7.707000000000000      8.631000000000000      6.640000000000000
C      -6.759000000000000      7.567000000000000      6.828000000000000
C      -5.639000000000000      8.192000000000000      7.695000000000000
O      -4.872000000000000      7.187000000000000      8.289000000000000
C      -3.779000000000000      6.643000000000000      7.415000000000000
C      -2.491000000000000      7.322000000000000      7.934000000000000
O      -1.296000000000000      6.893000000000000      7.166000000000000
C      -0.059000000000000      7.380000000000000      7.651000000000000
C       1.004000000000000      7.432000000000000      6.500000000000000
H       1.316000000000000      9.621000000000000      4.179000000000000
H       2.475000000000000      8.377000000000001      4.803000000000000
H       1.253000000000000      6.662000000000000      3.428000000000000
H       2.245000000000000      7.800000000000000      2.584000000000000
H       1.031000000000000      9.124000000000001      0.928000000000000
H       0.401000000000000     10.127000000000001      2.326000000000000
H      -0.896000000000000     10.396000000000001      0.262000000000000
H      -1.227000000000000      8.637000000000000      0.162000000000000
H      -3.115000000000000     10.499000000000001     -0.204000000000000
H      -3.777000000000000      8.978999999999999      0.605000000000000
H      -4.207000000000000     11.865000000000000      1.524000000000000
H      -4.516000000000000     10.359000000000000      2.530000000000000
H      -7.540000000000000      9.512000000000000      0.955000000000000
H      -6.323000000000000      9.057000000000000      2.237000000000000
H      -7.949000000000000     11.586000000000000      2.052000000000000
H      -6.823000000000000     11.247000000000000      3.434000000000000
H      -7.649000000000000      8.209000000000000      3.810000000000000
H      -9.195000000000000      8.497000000000000      4.605000000000000
H      -6.411000000000000      9.499000000000001      5.339000000000000
H      -7.732000000000000     10.506000000000000      5.830000000000000
H      -6.365000000000000      7.191000000000000      5.875000000000000
H      -7.218000000000000      6.766000000000000      7.420000000000000
H      -6.061000000000000      8.926000000000000      8.393000000000001
H      -4.998000000000000      8.772000000000000      7.021000000000000
H      -3.744000000000000      5.549000000000000      7.494000000000000
H      -3.819000000000000      6.920000000000000      6.355000000000000
H      -2.630000000000000      8.388999999999999      7.721000000000000
H      -2.404000000000000      7.255000000000000      9.026000000000000
H       0.312000000000000      6.718000000000000      8.444000000000001
H      -0.211000000000000      8.394000000000000      8.039000000000000
H       1.281000000000000      6.448000000000000      6.101000000000000
H       1.876000000000000      7.934000000000000      6.935000000000000
56

O       1.430000000000000     10.061000000000000      1.842000000000000
C       0.250000000000000     10.343999999999999      0.955000000000000
C      -0.227000000000000     11.776000000000000      1.185000000000000
O      -1.259000000000000     11.731000000000000      2.192000000000000
C      -2.583000000000000     12.323000000000000      1.773000000000000
C      -2.905000000000000     13.660000000000000      2.555000000000000
O      -3.505000000000000     13.241000000000000      3.818000000000000
C      -4.949000000000000     12.942000000000000      3.812000000000000
C      -5.540000000000000     13.218000000000000      5.258000000000000
O      -6.698000000000000     12.401000000000000      5.666000000000000
C      -6.507000000000000     10.986000000000001      5.838000000000000
C      -6.012000000000000     10.638999999999999      7.234000000000000
O      -6.555000000000000      9.393000000000001      7.583000000000000
C      -5.705000000000000      8.234999999999999      7.256000000000000
C      -4.689000000000000      7.909000000000000      8.444000000000001
O      -3.489000000000000      7.420000000000000      7.951000000000000
C      -3.593000000000000      6.071000000000000      7.532000000000000
C      -2.205000000000000      5.548000000000000      7.250000000000000
O      -1.641000000000000      6.214000000000000      6.105000000000000
C      -0.341000000000000      5.713000000000000      5.640000000000000
C      -0.036000000000000      6.150000000000000      4.238000000000000
O       0.010000000000000      7.579000000000000      4.143000000000000
C       0.831000000000000      8.006000000000000      3.076000000000000
C       0.914000000000000      9.539999999999999      3.095000000000000
H       0.483000000000000     10.339000000000000     -0.117000000000000
H      -0.612000000000000      9.683000000000000      1.107000000000000
H      -0.499000000000000     12.146000000000001      0.189000000000000
H       0.667000000000000     12.272000000000000      1.582000000000000
H      -3.373000000000000     11.581000000000000      1.939000000000000
H      -2.591000000000000     12.492000000000001      0.689000000000000
H      -1.933000000000000     14.112000000000000      2.791000000000000
H      -3.501000000000000     14.378000000000000      1.979000000000000
H      -5.452000000000000     13.640000000000001      3.132000000000000
H      -5.090000000000000     11.933999999999999      3.401000000000000
H      -5.889000000000000     14.257999999999999      5.272000000000000
H      -4.723000000000000     13.204000000000001      5.991000000000000
H      -7.520000000000000     10.593000000000000      5.684000000000000
H      -5.902000000000000     10.621000000000000      4.999000000000000
H      -6.423000000000000     11.403000000000000      7.906000000000000
H      -4.922000000000000     10.747999999999999      7.176000000000000
H      -5.163000000000000      8.478999999999999      6.334000000000000
H      -6.332000000000000      7.367000000000000      7.016000000000000
H      -4.510000000000000      8.775000000000000      9.093000000000000
H      -5.233000000000000      7.203000000000000      9.083000000000000
H      -4.107000000000000      6.082000000000000      6.563000000000000
H      -4.104000000000000      5.500000000000000      8.317000000000000
H      -2.343000000000000      4.471000000000000      7.095000000000000
H      -1.499000000000000      5.648000000000000      8.084000000000000
H       0.491000000000000      6.032000000000000      6.280000000000000
H      -0.383000000000000      4.619000000000000      5.578000000000000
H       0.938000000000000      5.698000000000000      4.015000000000000
H      -0.744000000000000      5.774000000000000      3.489000000000000
H       0.471000000000000      7.690000000000000      2.089000000000000
H       1.840000000000000      7.596000000000000      3.203000000000000
H       1.618000000000000      9.858000000000001      3.874000000000000
H      -0.023000000000000     10.000999999999999      3.432000000000000
56

O      -0.149000000000000      7.821000000000000     -6.297000000000000
C      -1.320000000000000      7.955000000000000     -7.044000000000000
C      -1.160000000000000      8.757000000000000     -8.330000000000000
O      -2.443000000000000      8.981000000000000     -8.910000000000000
C      -3.001000000000000      7.858000000000000     -9.552000000000000
C      -4.367000000000000      8.304000000000000    -10.156000000000001
O      -5.379000000000000      7.836000000000000     -9.221000000000000
C      -6.702000000000000      8.369999999999999     -9.340000000000000
C      -7.009000000000000      9.055000000000000     -7.956000000000000
O      -8.272000000000000      9.726000000000001     -7.891000000000000
C      -8.917999999999999      9.792999999999999     -6.631000000000000
C      -7.939000000000000     10.228999999999999     -5.500000000000000
O      -8.577999999999999     11.116000000000000     -4.639000000000000
C      -8.502000000000001     10.641999999999999     -3.258000000000000
C      -7.084000000000000     11.065000000000000     -2.687000000000000
O      -6.148000000000000      9.980000000000000     -2.855000000000000
C      -6.060000000000000      9.021000000000001     -1.736000000000000
C      -4.736000000000000      9.096000000000000     -0.873000000000000
O      -3.538000000000000      9.057000000000000     -1.665000000000000
C      -2.437000000000000      8.473000000000001     -1.036000000000000
C      -1.165000000000000      8.782999999999999     -1.816000000000000
O      -1.282000000000000      8.372000000000000     -3.264000000000000
C      -0.011000000000000      8.131000000000000     -3.873000000000000
C       0.127000000000000      8.827999999999999     -5.316000000000000
H      -1.595000000000000      6.923000000000000     -7.297000000000000
H      -2.098000000000000      8.452000000000000     -6.451000000000000
H      -0.393000000000000      8.340000000000000     -8.994999999999999
H      -0.793000000000000      9.695000000000000     -7.895000000000000
H      -3.101000000000000      6.996000000000000     -8.881000000000000
H      -2.269000000000000      7.595000000000000    -10.324999999999999
H      -4.317000000000000      9.388999999999999    -10.311999999999999
H      -4.497000000000000      7.847000000000000    -11.144000000000000
H      -6.732000000000000      9.105000000000000    -10.154999999999999
H      -7.408000000000000      7.591000000000000     -9.653000000000000
H      -6.279000000000000      9.836000000000000     -7.708000000000000
H      -6.830000000000000      8.313000000000001     -7.169000000000000
H      -9.752000000000001     10.499000000000001     -6.734000000000000
H      -9.413000000000000      8.830000000000000     -6.455000000000000
H      -7.037000000000000     10.737000000000000     -5.861000000000000
H      -7.680000000000000      9.257999999999999     -5.059000000000000
H      -8.643000000000001      9.557000000000000     -3.174000000000000
H      -9.288000000000000     11.036000000000000     -2.601000000000000
H      -6.758000000000000     11.944000000000001     -3.256000000000000
H      -7.132000000000000     11.407000000000000     -1.646000000000000
H      -6.389000000000000      8.050000000000001     -2.125000000000000
H      -6.878000000000000      9.301000000000000     -1.060000000000000
H      -4.727000000000000      8.205000000000000     -0.232000000000000
H      -4.692000000000000     10.002000000000001     -0.256000000000000
H      -2.365000000000000      8.993000000000000     -0.073000000000000
H      -2.631000000000000      7.406000000000000     -0.871000000000000
H      -0.933000000000000      9.852000000000000     -1.734000000000000
H      -0.325000000000000      8.256000000000000     -1.348000000000000
H       0.105000000000000      7.041000000000000     -3.862000000000000
H       0.839000000000000      8.429000000000000     -3.247000000000000
H       1.184000000000000      9.119999999999999     -5.329000000000000
H      -0.523000000000000      9.707000000000001     -5.402000000000000
56

O      -3.774000000000000      8.676000000000000     -3.387000000000000
C      -3.801000000000000      8.340000000000000     -4.792000000000000
C      -4.487000000000000      9.509000000000000     -5.593000000000000
O      -5.413000000000000      8.874000000000001     -6.460000000000000
C      -5.911000000000000      9.685000000000000     -7.608000000000000
C      -6.183000000000000      8.731999999999999     -8.717000000000001
O      -7.413000000000000      8.016000000000000     -8.433000000000000
C      -8.660000000000000      8.619000000000000     -8.956000000000000
C      -9.880000000000001      7.793000000000000     -8.380000000000001
O     -10.371000000000000      8.433000000000000     -7.278000000000000
C     -11.667999999999999      7.862000000000000     -6.918000000000000
C     -11.706000000000000      7.925000000000000     -5.300000000000000
O     -12.970000000000001      7.612000000000000     -4.820000000000000
C     -13.121000000000000      6.327000000000000     -4.145000000000000
C     -12.611000000000001      6.365000000000000     -2.628000000000000
O     -11.619000000000000      5.319000000000000     -2.386000000000000
C     -10.862000000000000      5.504000000000000     -1.126000000000000
C      -9.768000000000001      4.425000000000000     -0.987000000000000
O      -8.529999999999999      4.979000000000000     -1.283000000000000
C      -7.935000000000000      5.588000000000000     -0.127000000000000
C      -6.450000000000000      5.972000000000000     -0.388000000000000
O      -6.366000000000000      6.947000000000000     -1.463000000000000
C      -5.020000000000000      7.377000000000000     -1.694000000000000
C      -5.069000000000000      8.503000000000000     -2.762000000000000
H      -2.771000000000000      8.246000000000000     -5.157000000000000
H      -4.298000000000000      7.378000000000000     -4.971000000000000
H      -3.777000000000000     10.069000000000001     -6.214000000000000
H      -5.020000000000000     10.090000000000000     -4.831000000000000
H      -5.207000000000000     10.505000000000001     -7.794000000000000
H      -6.803000000000000     10.176000000000000     -7.199000000000000
H      -6.309000000000000      9.180000000000000     -9.710000000000001
H      -5.385000000000000      7.985000000000000     -8.815000000000000
H      -8.734000000000000      9.645000000000000     -8.576000000000001
H      -8.587000000000000      8.582000000000001    -10.050000000000001
H      -9.497999999999999      6.804000000000000     -8.098000000000001
H     -10.666000000000000      7.676000000000000     -9.137000000000000
H     -12.473000000000001      8.446999999999999     -7.381000000000000
H     -11.737000000000000      6.825000000000000     -7.267000000000000
H     -11.497999999999999      8.990000000000000     -5.136000000000000
H     -10.872999999999999      7.407000000000000     -4.809000000000000
H     -12.641999999999999      5.502000000000000     -4.686000000000000
H     -14.196000000000000      6.109000000000000     -4.186000000000000
H     -12.109999999999999      7.341000000000000     -2.608000000000000
H     -13.457000000000001      6.314000000000000     -1.933000000000000
H     -11.496000000000000      5.411000000000000     -0.236000000000000
H     -10.462000000000000      6.523000000000000     -1.051000000000000
H      -9.983000000000001      3.624000000000000     -1.704000000000000
H      -9.778000000000000      3.944000000000000     -0.001000000000000
H      -8.374000000000001      6.565000000000000      0.113000000000000
H      -7.978000000000000      4.917000000000000      0.740000000000000
H      -5.999000000000000      6.447000000000000      0.492000000000000
H      -5.858000000000000      5.081000000000000     -0.630000000000000
H      -4.396000000000000      6.514000000000000     -1.958000000000000
H      -4.643000000000000      7.857000000000000     -0.783000000000000
H      -5.434000000000000      9.452000000000000     -2.351000000000000
H      -5.854000000000000      8.127000000000001     -3.430000000000000
56

O      -6.331000000000000     10.090000000000000      1.705000000000000
C      -5.375000000000000     10.295000000000000      0.615000000000000
C      -5.169000000000000     11.814000000000000      0.251000000000000
O      -5.235000000000000     12.036000000000000     -1.178000000000000
C      -5.297000000000000     13.439000000000000     -1.527000000000000
C      -5.877000000000000     13.557000000000000     -2.998000000000000
O      -7.289000000000000     13.340999999999999     -3.006000000000000
C      -7.965000000000000     13.026000000000000     -4.299000000000000
C      -9.481999999999999     13.422000000000001     -4.300000000000000
O     -10.222000000000000     12.390000000000001     -5.003000000000000
C     -11.397000000000000     11.739000000000001     -4.511000000000000
C     -11.288000000000000     10.239000000000001     -4.850000000000000
O     -12.478999999999999      9.468000000000000     -4.407000000000000
C     -12.327000000000000      8.859000000000000     -3.112000000000000
C     -11.792000000000000      7.423000000000000     -3.425000000000000
O     -11.475000000000000      6.788000000000000     -2.163000000000000
C     -11.143000000000001      5.407000000000000     -2.134000000000000
C      -9.755000000000001      5.181000000000000     -1.400000000000000
O      -9.930000000000000      5.291000000000000      0.052000000000000
C      -8.641999999999999      5.071000000000000      0.747000000000000
C      -8.597000000000000      6.078000000000000      1.930000000000000
O      -7.610000000000000      7.003000000000000      1.611000000000000
C      -7.578000000000000      8.161000000000000      2.543000000000000
C      -6.156000000000000      8.850000000000000      2.399000000000000
H      -4.415000000000000     10.010999999999999      1.064000000000000
H      -5.631000000000000      9.571999999999999     -0.169000000000000
H      -4.174000000000000     12.148999999999999      0.569000000000000
H      -5.911000000000000     12.470000000000001      0.723000000000000
H      -4.315000000000000     13.927000000000000     -1.524000000000000
H      -5.982000000000000     13.932000000000000     -0.826000000000000
H      -5.707000000000000     14.574999999999999     -3.370000000000000
H      -5.388000000000000     12.782999999999999     -3.602000000000000
H      -7.498000000000000     13.605000000000000     -5.104000000000000
H      -7.805000000000000     11.949999999999999     -4.445000000000000
H      -9.638000000000000     14.417000000000000     -4.734000000000000
H      -9.820000000000000     13.496000000000000     -3.259000000000000
H     -11.641999999999999     11.910000000000000     -3.456000000000000
H     -12.195000000000000     12.188000000000001     -5.115000000000000
H     -10.353000000000000      9.759000000000000     -4.538000000000000
H     -11.275000000000000     10.326000000000001     -5.944000000000000
H     -13.318000000000000      8.747000000000000     -2.656000000000000
H     -11.664000000000000      9.396000000000001     -2.422000000000000
H     -12.529000000000000      6.825000000000000     -3.975000000000000
H     -10.903000000000000      7.453000000000000     -4.068000000000000
H     -10.965999999999999      5.045000000000000     -3.154000000000000
H     -11.919000000000000      4.745000000000000     -1.731000000000000
H      -9.050000000000001      5.960000000000000     -1.715000000000000
H      -9.379000000000000      4.183000000000000     -1.658000000000000
H      -8.544000000000000      4.018000000000000      1.037000000000000
H      -7.757000000000000      5.242000000000000      0.122000000000000
H      -9.529999999999999      6.622000000000000      2.124000000000000
H      -8.438000000000001      5.495000000000000      2.845000000000000
H      -7.706000000000000      7.779000000000000      3.563000000000000
H      -8.416000000000000      8.855000000000000      2.397000000000000
H      -5.597000000000000      8.183999999999999      1.729000000000000
H      -5.744000000000000      8.980000000000000      3.407000000000000
56

O     -12.499000000000001      4.002000000000000     -5.198000000000000
C     -13.926000000000000      4.266000000000000     -5.278000000000000
C     -14.553000000000001      3.659000000000000     -3.938000000000000
O     -14.318000000000000      2.232000000000000     -3.832000000000000
C     -15.355000000000000      1.489000000000000     -3.127000000000000
C     -15.122000000000000      1.417000000000000     -1.622000000000000
O     -15.916000000000000      0.416000000000000     -0.968000000000000
C     -15.295999999999999     -0.289000000000000      0.189000000000000
C     -14.308000000000000     -1.364000000000000     -0.317000000000000
O     -12.968000000000000     -0.862000000000000     -0.273000000000000
C     -12.238000000000000     -1.072000000000000      0.910000000000000
C     -10.781000000000001     -0.754000000000000      0.580000000000000
O     -10.574999999999999      0.708000000000000      0.592000000000000
C      -9.763999999999999      1.250000000000000      1.606000000000000
C      -9.843000000000000      2.833000000000000      1.673000000000000
O      -9.122000000000000      3.315000000000000      0.527000000000000
C      -8.722000000000000      4.704000000000000      0.574000000000000
C      -7.464000000000000      4.795000000000000     -0.356000000000000
O      -7.882000000000000      4.793000000000000     -1.762000000000000
C      -8.298000000000000      6.014000000000000     -2.303000000000000
C      -8.587000000000000      5.849000000000000     -3.806000000000000
O      -9.611000000000001      4.836000000000000     -3.941000000000000
C     -10.117000000000001      4.557000000000000     -5.279000000000000
C     -11.634000000000000      5.031000000000000     -5.388000000000000
H     -14.252000000000001      5.310000000000000     -5.186000000000000
H     -14.340000000000000      3.705000000000000     -6.125000000000000
H     -15.628000000000000      3.874000000000000     -3.958000000000000
H     -14.141000000000000      4.198000000000000     -3.075000000000000
H     -15.291000000000000      0.514000000000000     -3.626000000000000
H     -16.340000000000000      1.840000000000000     -3.457000000000000
H     -14.055000000000000      1.200000000000000     -1.491000000000000
H     -15.395000000000000      2.413000000000000     -1.251000000000000
H     -14.770000000000000      0.412000000000000      0.850000000000000
H     -16.161000000000001     -0.826000000000000      0.598000000000000
H     -14.579000000000001     -1.650000000000000     -1.340000000000000
H     -14.324999999999999     -2.292000000000000      0.267000000000000
H     -12.590000000000000     -0.510000000000000      1.783000000000000
H     -12.260999999999999     -2.122000000000000      1.225000000000000
H     -10.643000000000001     -1.134000000000000     -0.440000000000000
H     -10.037000000000001     -1.335000000000000      1.140000000000000
H      -8.782000000000000      0.834000000000000      1.348000000000000
H     -10.141999999999999      0.900000000000000      2.575000000000000
H     -10.882999999999999      3.180000000000000      1.667000000000000
H      -9.471000000000000      3.152000000000000      2.655000000000000
H      -8.320000000000000      4.855000000000000      1.583000000000000
H      -9.600000000000000      5.326000000000000      0.359000000000000
H      -6.745000000000000      3.977000000000000     -0.229000000000000
H      -6.900000000000000      5.713000000000000     -0.149000000000000
H      -9.250000000000000      6.279000000000000     -1.828000000000000
H      -7.630000000000000      6.879000000000000     -2.202000000000000
H      -8.827999999999999      6.822000000000000     -4.251000000000000
H      -7.664000000000000      5.553000000000000     -4.320000000000000
H     -10.096000000000000      3.480000000000000     -5.489000000000000
H      -9.523999999999999      5.130000000000000     -6.003000000000000
H     -11.833000000000000      5.398000000000000     -6.402000000000000
H     -11.795000000000000      5.820000000000000     -4.642000000000000
56

O      -8.843999999999999      3.174000000000000     -2.322000000000000
C      -9.811999999999999      3.343000000000000     -3.406000000000000
C     -10.082000000000001      1.912000000000000     -4.090000000000000
O     -10.890000000000001      1.109000000000000     -3.144000000000000
C     -10.711000000000000     -0.316000000000000     -3.459000000000000
C     -11.045000000000000     -1.122000000000000     -2.215000000000000
O     -10.583000000000000     -2.507000000000000     -2.275000000000000
C      -9.381000000000000     -2.971000000000000     -1.566000000000000
C      -9.580000000000000     -2.836000000000000     -0.088000000000000
O      -8.579000000000001     -3.641000000000000      0.502000000000000
C      -8.505000000000001     -3.544000000000000      1.934000000000000
C      -7.938000000000000     -2.262000000000000      2.310000000000000
O      -7.254000000000000     -2.412000000000000      3.556000000000000
C      -8.013999999999999     -1.892000000000000      4.648000000000000
C      -7.368000000000000     -0.552000000000000      5.268000000000000
O      -8.106000000000000      0.573000000000000      4.795000000000000
C      -7.367000000000000      1.785000000000000      5.076000000000000
C      -8.189000000000000      2.964000000000000      4.614000000000000
O      -7.665000000000000      3.543000000000000      3.345000000000000
C      -8.664000000000000      4.096000000000000      2.449000000000000
C      -7.968000000000000      4.911000000000000      1.322000000000000
O      -8.042999999999999      4.146000000000000      0.115000000000000
C      -7.745000000000000      4.872000000000000     -1.029000000000000
C      -7.681000000000000      4.037000000000000     -2.261000000000000
H     -10.705000000000000      3.877000000000000     -3.057000000000000
H      -9.409000000000001      3.992000000000000     -4.194000000000000
H      -9.085000000000001      1.543000000000000     -4.358000000000000
H     -10.561000000000000      2.073000000000000     -5.064000000000000
H      -9.646000000000001     -0.433000000000000     -3.695000000000000
H     -11.305999999999999     -0.493000000000000     -4.364000000000000
H     -10.621000000000000     -0.686000000000000     -1.302000000000000
H     -12.137000000000000     -1.180000000000000     -2.129000000000000
H      -9.057000000000000     -4.005000000000000     -1.740000000000000
H      -8.505000000000001     -2.393000000000000     -1.885000000000000
H     -10.593999999999999     -3.142000000000000      0.200000000000000
H      -9.440000000000000     -1.788000000000000      0.202000000000000
H      -9.478000000000000     -3.626000000000000      2.434000000000000
H      -7.875000000000000     -4.341000000000000      2.348000000000000
H      -8.769000000000000     -1.549000000000000      2.385000000000000
H      -7.282000000000000     -2.018000000000000      1.465000000000000
H      -7.938000000000000     -2.533000000000000      5.535000000000000
H      -9.076000000000001     -1.695000000000000      4.457000000000000
H      -7.435000000000000     -0.601000000000000      6.362000000000000
H      -6.295000000000000     -0.533000000000000      5.039000000000000
H      -6.409000000000000      1.742000000000000      4.544000000000000
H      -7.308000000000000      1.842000000000000      6.170000000000000
H      -8.041000000000000      3.735000000000000      5.381000000000000
H      -9.239000000000001      2.753000000000000      4.379000000000000
H      -9.263000000000000      3.268000000000000      2.049000000000000
H      -9.286000000000000      4.761000000000000      3.061000000000000
H      -8.606000000000000      5.791000000000000      1.175000000000000
H      -6.983000000000000      5.122000000000000      1.756000000000000
H      -6.847000000000000      5.501000000000000     -0.998000000000000
H      -8.558000000000000      5.570000000000000     -1.263000000000000
H      -6.695000000000000      3.557000000000000     -2.275000000000000
H      -7.688000000000000      4.733000000000000     -3.109000000000000
56

O     -11.006000000000000      0.411000000000000     -0.632000000000000
C     -10.441000000000001     -0.611000000000000     -1.383000000000000
C      -9.945000000000000     -1.653000000000000     -0.368000000000000
O     -10.359000000000000     -2.938000000000000     -0.807000000000000
C      -9.557000000000000     -4.057000000000000     -0.302000000000000
C     -10.069000000000001     -4.322000000000000      1.073000000000000
O      -9.114000000000001     -5.152000000000000      1.696000000000000
C      -8.021000000000001     -4.473000000000000      2.454000000000000
C      -8.558000000000000     -4.503000000000000      3.866000000000000
O      -7.467000000000000     -4.013000000000000      4.692000000000000
C      -7.740000000000000     -3.823000000000000      6.132000000000000
C      -8.358000000000001     -2.404000000000000      6.415000000000000
O      -7.338000000000000     -1.370000000000000      6.400000000000000
C      -7.810000000000000      0.018000000000000      6.675000000000000
C      -6.680000000000000      1.052000000000000      6.351000000000000
O      -7.204000000000000      2.314000000000000      5.783000000000000
C      -7.188000000000000      2.443000000000000      4.347000000000000
C      -8.327999999999999      3.469000000000000      4.013000000000000
O      -8.707000000000001      3.422000000000000      2.590000000000000
C      -9.493000000000000      4.588000000000000      2.103000000000000
C     -10.025000000000000      4.158000000000000      0.637000000000000
O     -10.833000000000000      2.877000000000000      0.600000000000000
C     -11.718000000000000      2.666000000000000     -0.536000000000000
C     -11.132999999999999      1.544000000000000     -1.439000000000000
H     -11.159000000000001     -1.047000000000000     -2.088000000000000
H      -9.622999999999999     -0.251000000000000     -2.019000000000000
H     -10.345000000000001     -1.410000000000000      0.624000000000000
H      -8.849000000000000     -1.636000000000000     -0.319000000000000
H      -8.480000000000000     -3.847000000000000     -0.301000000000000
H      -9.627000000000001     -4.871000000000000     -1.035000000000000
H     -10.132999999999999     -3.427000000000000      1.704000000000000
H     -11.023000000000000     -4.855000000000000      0.985000000000000
H      -7.112000000000000     -5.085000000000000      2.488000000000000
H      -7.668000000000000     -3.510000000000000      2.064000000000000
H      -8.821000000000000     -5.528000000000000      4.155000000000000
H      -9.419000000000000     -3.833000000000000      3.981000000000000
H      -8.460000000000001     -4.606000000000000      6.401000000000000
H      -6.768000000000000     -3.874000000000000      6.639000000000000
H      -8.667000000000000     -2.475000000000000      7.465000000000000
H      -9.228000000000000     -2.231000000000000      5.769000000000000
H      -8.074000000000000      0.158000000000000      7.730000000000000
H      -8.714000000000000      0.202000000000000      6.081000000000000
H      -6.162000000000000      1.227000000000000      7.302000000000000
H      -5.979000000000000      0.609000000000000      5.633000000000000
H      -7.448000000000000      1.543000000000000      3.775000000000000
H      -6.160000000000000      2.650000000000000      4.027000000000000
H      -8.010000000000000      4.484000000000000      4.281000000000000
H      -9.201000000000001      3.207000000000000      4.623000000000000
H     -10.308000000000000      4.761000000000000      2.817000000000000
H      -8.916000000000000      5.520000000000000      2.079000000000000
H     -10.589000000000000      4.988000000000000      0.195000000000000
H      -9.112000000000000      4.022000000000000      0.044000000000000
H     -11.792999999999999      3.624000000000000     -1.065000000000000
H     -12.712000000000000      2.310000000000000     -0.237000000000000
H     -10.244999999999999      1.867000000000000     -1.997000000000000
H     -11.829000000000001      1.344000000000000     -2.264000000000000
56

O      -3.798000000000000      0.711000000000000     -1.736000000000000
C      -2.888000000000000      0.045000000000000     -2.705000000000000
C      -3.352000000000000     -1.459000000000000     -2.844000000000000
O      -2.182000000000000     -2.372000000000000     -3.010000000000000
C      -1.686000000000000     -2.877000000000000     -1.730000000000000
C      -2.578000000000000     -4.003000000000000     -1.173000000000000
O      -1.786000000000000     -4.853000000000000     -0.342000000000000
C      -2.547000000000000     -5.811000000000000      0.455000000000000
C      -1.684000000000000     -6.560000000000000      1.561000000000000
O      -1.096000000000000     -5.668000000000000      2.568000000000000
C      -1.377000000000000     -5.966000000000000      3.954000000000000
C      -0.411000000000000     -5.218000000000000      4.852000000000000
O      -0.877000000000000     -3.810000000000000      4.958000000000000
C      -1.537000000000000     -3.368000000000000      6.144000000000000
C      -1.284000000000000     -1.870000000000000      6.532000000000000
O      -2.531000000000000     -1.195000000000000      6.281000000000000
C      -2.581000000000000     -0.535000000000000      4.957000000000000
C      -2.922000000000000      0.815000000000000      5.133000000000000
O      -2.966000000000000      1.472000000000000      3.869000000000000
C      -4.253000000000000      1.543000000000000      3.329000000000000
C      -4.272000000000000      2.587000000000000      2.164000000000000
O      -3.591000000000000      2.204000000000000      0.944000000000000
C      -4.202000000000000      2.673000000000000     -0.305000000000000
C      -3.458000000000000      2.073000000000000     -1.583000000000000
H      -2.960000000000000      0.589000000000000     -3.656000000000000
H      -1.869000000000000      0.063000000000000     -2.300000000000000
H      -3.995000000000000     -1.444000000000000     -3.732000000000000
H      -4.006000000000000     -1.666000000000000     -1.988000000000000
H      -1.789000000000000     -2.047000000000000     -1.020000000000000
H      -0.659000000000000     -3.237000000000000     -1.868000000000000
H      -3.518000000000000     -3.670000000000000     -0.716000000000000
H      -2.801000000000000     -4.620000000000000     -2.053000000000000
H      -3.367000000000000     -5.294000000000000      0.969000000000000
H      -2.810000000000000     -6.671000000000000     -0.174000000000000
H      -0.883000000000000     -7.130000000000000      1.074000000000000
H      -2.304000000000000     -7.299000000000000      2.085000000000000
H      -2.390000000000000     -5.653000000000000      4.235000000000000
H      -1.194000000000000     -7.037000000000000      4.105000000000000
H       0.563000000000000     -5.288000000000000      4.352000000000000
H      -0.276000000000000     -5.674000000000000      5.840000000000000
H      -1.186000000000000     -3.996000000000000      6.972000000000000
H      -2.627000000000000     -3.493000000000000      6.126000000000000
H      -1.082000000000000     -1.781000000000000      7.606000000000000
H      -0.424000000000000     -1.456000000000000      5.992000000000000
H      -3.276000000000000     -1.079000000000000      4.305000000000000
H      -1.608000000000000     -0.515000000000000      4.450000000000000
H      -2.231000000000000      1.307000000000000      5.828000000000000
H      -3.930000000000000      0.905000000000000      5.557000000000000
H      -4.456000000000000      0.520000000000000      2.990000000000000
H      -5.029000000000000      1.746000000000000      4.077000000000000
H      -5.302000000000000      2.865000000000000      1.910000000000000
H      -3.830000000000000      3.504000000000000      2.571000000000000
H      -4.024000000000000      3.747000000000000     -0.446000000000000
H      -5.242000000000000      2.323000000000000     -0.329000000000000
H      -2.383000000000000      2.219000000000000     -1.423000000000000
H      -3.686000000000000      2.649000000000000     -2.488000000000000
56

O      -1.275000000000000      2.604000000000000     -2.323000000000000
C      -1.306000000000000      1.752000000000000     -3.593000000000000
C      -0.226000000000000      0.738000000000000     -3.362000000000000
O      -0.284000000000000     -0.192000000000000     -4.477000000000000
C      -0.838000000000000     -1.447000000000000     -4.380000000000000
C       0.251000000000000     -2.502000000000000     -3.943000000000000
O      -0.375000000000000     -3.918000000000000     -3.969000000000000
C       0.668000000000000     -4.956000000000000     -3.851000000000000
C       0.898000000000000     -5.316000000000000     -2.274000000000000
O      -0.291000000000000     -5.820000000000000     -1.649000000000000
C      -0.142000000000000     -6.496000000000000     -0.453000000000000
C      -0.537000000000000     -5.614000000000000      0.743000000000000
O      -1.980000000000000     -5.439000000000000      0.761000000000000
C      -2.659000000000000     -4.943000000000000      1.918000000000000
C      -1.932000000000000     -3.577000000000000      2.325000000000000
O      -2.740000000000000     -2.861000000000000      3.310000000000000
C      -3.628000000000000     -1.853000000000000      2.801000000000000
C      -2.970000000000000     -0.398000000000000      2.863000000000000
O      -3.741000000000000      0.658000000000000      2.166000000000000
C      -3.570000000000000      2.037000000000000      2.755000000000000
C      -2.475000000000000      2.758000000000000      1.908000000000000
O      -3.124000000000000      2.888000000000000      0.591000000000000
C      -2.344000000000000      3.627000000000000     -0.425000000000000
C      -2.560000000000000      2.937000000000000     -1.777000000000000
H      -2.167000000000000      1.075000000000000     -3.651000000000000
H      -1.211000000000000      2.329000000000000     -4.521000000000000
H      -0.219000000000000      0.213000000000000     -2.398000000000000
H       0.765000000000000      1.190000000000000     -3.486000000000000
H      -1.345000000000000     -1.731000000000000     -5.311000000000000
H      -1.653000000000000     -1.327000000000000     -3.656000000000000
H       1.081000000000000     -2.400000000000000     -4.653000000000000
H       0.569000000000000     -2.255000000000000     -2.922000000000000
H       0.185000000000000     -5.879000000000000     -4.194000000000000
H       1.579000000000000     -4.721000000000000     -4.414000000000000
H       1.303000000000000     -4.443000000000000     -1.747000000000000
H       1.729000000000000     -6.028000000000000     -2.187000000000000
H      -0.639000000000000     -7.463000000000000     -0.605000000000000
H       0.931000000000000     -6.674000000000000     -0.312000000000000
H       0.030000000000000     -4.675000000000000      0.719000000000000
H      -0.229000000000000     -6.146000000000000      1.651000000000000
H      -2.704000000000000     -5.652000000000000      2.754000000000000
H      -3.713000000000000     -4.701000000000000      1.732000000000000
H      -0.989000000000000     -3.966000000000000      2.731000000000000
H      -1.647000000000000     -2.878000000000000      1.529000000000000
H      -4.466000000000000     -1.802000000000000      3.508000000000000
H      -3.885000000000000     -2.117000000000000      1.768000000000000
H      -1.972000000000000     -0.388000000000000      2.407000000000000
H      -2.847000000000000     -0.269000000000000      3.946000000000000
H      -4.563000000000000      2.499000000000000      2.691000000000000
H      -3.424000000000000      2.027000000000000      3.842000000000000
H      -2.370000000000000      3.794000000000000      2.252000000000000
H      -1.459000000000000      2.349000000000000      1.967000000000000
H      -1.298000000000000      3.638000000000000     -0.095000000000000
H      -2.640000000000000      4.683000000000000     -0.413000000000000
H      -3.115000000000000      3.591000000000000     -2.461000000000000
H      -3.090000000000000      1.978000000000000     -1.722000000000000
56

O       2.971000000000000      0.020000000000000      8.295000000000000
C       3.978000000000000      0.852000000000000      7.629000000000000
C       3.257000000000000      1.915000000000000      6.839000000000000
O       4.279000000000000      2.771000000000000      6.314000000000000
C       3.890000000000000      3.542000000000000      5.195000000000000
C       5.101000000000000      4.140000000000000      4.467000000000000
O       5.434000000000000      3.386000000000000      3.263000000000000
C       6.646000000000000      3.716000000000000      2.423000000000000
C       7.592000000000000      2.475000000000000      2.412000000000000
O       6.781000000000000      1.438000000000000      1.747000000000000
C       7.556000000000000      0.334000000000000      1.148000000000000
C       6.659000000000000     -0.897000000000000      0.919000000000000
O       7.460000000000000     -2.154000000000000      0.914000000000000
C       7.233000000000000     -3.202000000000000      1.862000000000000
C       5.856000000000000     -3.947000000000000      1.490000000000000
O       5.687000000000000     -4.920000000000000      2.520000000000000
C       4.384000000000000     -5.563000000000000      2.592000000000000
C       4.384000000000000     -6.463000000000000      3.891000000000000
O       4.418000000000000     -5.586000000000000      5.072000000000000
C       3.174000000000000     -5.268000000000000      5.787000000000000
C       3.548000000000000     -4.467000000000000      7.037000000000000
O       2.729000000000000     -3.337000000000000      6.928000000000000
C       3.161000000000000     -2.295000000000000      7.714000000000000
C       2.354000000000000     -1.036000000000000      7.468000000000000
H       4.592000000000000      1.381000000000000      8.368000000000000
H       4.625000000000000      0.255000000000000      6.975000000000000
H       2.671000000000000      2.475000000000000      7.577000000000000
H       2.627000000000000      1.423000000000000      6.086000000000000
H       3.262000000000000      4.365000000000000      5.558000000000000
H       3.308000000000000      2.928000000000000      4.497000000000000
H       4.991000000000000      5.220000000000000      4.309000000000000
H       5.938000000000000      4.002000000000000      5.162000000000000
H       6.369000000000000      3.978000000000000      1.395000000000000
H       7.192000000000000      4.576000000000000      2.830000000000000
H       8.035000000000000      2.176000000000000      3.370000000000000
H       8.398999999999999      2.881000000000000      1.791000000000000
H       8.048000000000000      0.726000000000000      0.249000000000000
H       8.428000000000001      0.134000000000000      1.783000000000000
H       6.062000000000000     -0.869000000000000     -0.001000000000000
H       5.950000000000000     -0.978000000000000      1.752000000000000
H       7.169000000000000     -2.833000000000000      2.893000000000000
H       8.058999999999999     -3.920000000000000      1.773000000000000
H       5.043000000000000     -3.215000000000000      1.577000000000000
H       5.836000000000000     -4.452000000000000      0.516000000000000
H       4.185000000000000     -6.155000000000000      1.690000000000000
H       3.561000000000000     -4.860000000000000      2.770000000000000
H       5.169000000000000     -7.224000000000000      3.809000000000000
H       3.473000000000000     -7.071000000000000      3.824000000000000
H       2.471000000000000     -4.704000000000000      5.162000000000000
H       2.646000000000000     -6.215000000000000      5.955000000000000
H       3.365000000000000     -5.028000000000000      7.962000000000000
H       4.627000000000000     -4.297000000000000      6.939000000000000
H       4.174000000000000     -2.133000000000000      7.325000000000000
H       3.160000000000000     -2.486000000000000      8.794000000000000
H       1.339000000000000     -1.285000000000000      7.803000000000000
H       2.291000000000000     -0.778000000000000      6.403000000000000
56

O      -3.639000000000000      3.555000000000000      2.389000000000000
C      -2.623000000000000      3.041000000000000      3.278000000000000
C      -1.907000000000000      4.193000000000000      3.986000000000000
O      -0.816000000000000      3.613000000000000      4.547000000000000
C       0.245000000000000      4.599000000000000      4.713000000000000
C       1.577000000000000      3.856000000000000      4.557000000000000
O       2.416000000000000      4.479000000000000      3.569000000000000
C       3.782000000000000      4.186000000000000      3.745000000000000
C       4.290000000000000      2.977000000000000      2.836000000000000
O       4.127000000000000      3.175000000000000      1.397000000000000
C       4.524000000000000      2.064000000000000      0.526000000000000
C       4.054000000000000      2.295000000000000     -0.939000000000000
O       3.905000000000000      1.067000000000000     -1.679000000000000
C       2.593000000000000      0.483000000000000     -1.489000000000000
C       1.679000000000000      0.982000000000000     -2.627000000000000
O       0.612000000000000     -0.044000000000000     -2.769000000000000
C      -0.033000000000000     -0.161000000000000     -4.072000000000000
C      -1.447000000000000      0.516000000000000     -3.832000000000000
O      -2.195000000000000      0.032000000000000     -2.694000000000000
C      -3.600000000000000      0.399000000000000     -2.748000000000000
C      -4.144000000000000      0.523000000000000     -1.257000000000000
O      -3.877000000000000      1.886000000000000     -0.846000000000000
C      -3.816000000000000      1.946000000000000      0.599000000000000
C      -3.396000000000000      3.372000000000000      0.957000000000000
H      -3.015000000000000      2.361000000000000      4.045000000000000
H      -1.967000000000000      2.418000000000000      2.658000000000000
H      -2.446000000000000      4.842000000000000      4.687000000000000
H      -1.563000000000000      4.824000000000000      3.157000000000000
H       0.090000000000000      5.086000000000000      5.684000000000000
H       0.211000000000000      5.361000000000000      3.925000000000000
H       1.990000000000000      3.872000000000000      5.573000000000000
H       1.465000000000000      2.801000000000000      4.279000000000000
H       4.327000000000000      5.097000000000000      3.470000000000000
H       4.136000000000000      4.027000000000000      4.771000000000000
H       3.905000000000000      1.987000000000000      3.111000000000000
H       5.383000000000000      2.951000000000000      2.922000000000000
H       5.609000000000000      1.911000000000000      0.586000000000000
H       4.085000000000000      1.159000000000000      0.962000000000000
H       4.659000000000000      3.032000000000000     -1.481000000000000
H       3.107000000000000      2.839000000000000     -0.832000000000000
H       2.126000000000000      0.819000000000000     -0.555000000000000
H       2.806000000000000     -0.593000000000000     -1.500000000000000
H       1.304000000000000      1.992000000000000     -2.420000000000000
H       2.267000000000000      1.087000000000000     -3.547000000000000
H      -0.264000000000000     -1.181000000000000     -4.403000000000000
H       0.528000000000000      0.268000000000000     -4.912000000000000
H      -1.965000000000000      0.242000000000000     -4.759000000000000
H      -1.313000000000000      1.604000000000000     -3.789000000000000
H      -3.689000000000000      1.348000000000000     -3.290000000000000
H      -4.201000000000000     -0.356000000000000     -3.271000000000000
H      -5.216000000000000      0.292000000000000     -1.226000000000000
H      -3.576000000000000     -0.102000000000000     -0.557000000000000
H      -3.119000000000000      1.186000000000000      0.971000000000000
H      -4.815000000000000      1.752000000000000      1.008000000000000
H      -4.072000000000000      4.075000000000000      0.456000000000000
H      -2.407000000000000      3.698000000000000      0.612000000000000
56

O       0.144000000000000     -1.424000000000000      7.902000000000000
C       1.149000000000000     -2.379000000000000      7.329000000000000
C       1.996000000000000     -1.733000000000000      6.173000000000000
O       3.378000000000000     -2.373000000000000      6.077000000000000
C       3.435000000000000     -3.663000000000000      5.422000000000000
C       4.259000000000000     -3.547000000000000      4.116000000000000
O       3.663000000000000     -4.435000000000000      3.129000000000000
C       4.276000000000000     -4.136000000000000      1.795000000000000
C       3.547000000000000     -4.812000000000000      0.609000000000000
O       2.244000000000000     -4.234000000000000      0.427000000000000
C       1.211000000000000     -5.005000000000000     -0.238000000000000
C       0.109000000000000     -3.907000000000000     -0.535000000000000
O      -1.056000000000000     -4.674000000000000     -0.925000000000000
C      -1.981000000000000     -4.916000000000000      0.080000000000000
C      -2.903000000000000     -3.750000000000000      0.405000000000000
O      -3.981000000000000     -4.207000000000000      1.301000000000000
C      -3.728000000000000     -4.355000000000000      2.709000000000000
C      -4.601000000000000     -3.395000000000000      3.498000000000000
O      -4.703000000000000     -3.751000000000000      4.904000000000000
C      -5.178000000000000     -2.753000000000000      5.847000000000000
C      -4.174000000000000     -2.633000000000000      6.998000000000000
O      -3.112000000000000     -1.682000000000000      6.777000000000000
C      -2.260000000000000     -1.335000000000000      7.805000000000000
C      -0.923000000000000     -0.991000000000000      7.166000000000000
H       1.856000000000000     -2.612000000000000      8.134000000000000
H       0.753000000000000     -3.353000000000000      7.016000000000000
H       2.173000000000000     -0.688000000000000      6.459000000000000
H       1.465000000000000     -1.893000000000000      5.227000000000000
H       2.454000000000000     -3.906000000000000      4.995000000000000
H       3.828000000000000     -4.436000000000000      6.094000000000000
H       4.157000000000000     -2.522000000000000      3.740000000000000
H       5.284000000000000     -3.899000000000000      4.287000000000000
H       4.311000000000000     -3.051000000000000      1.633000000000000
H       5.263000000000000     -4.610000000000000      1.857000000000000
H       3.502000000000000     -5.903000000000000      0.714000000000000
H       4.067000000000000     -4.688000000000000     -0.349000000000000
H       1.643000000000000     -5.387000000000000     -1.171000000000000
H       0.822000000000000     -5.782000000000000      0.431000000000000
H       0.509000000000000     -3.277000000000000     -1.339000000000000
H      -0.095000000000000     -3.374000000000000      0.401000000000000
H      -1.398000000000000     -5.184000000000000      0.969000000000000
H      -2.618000000000000     -5.747000000000000     -0.248000000000000
H      -2.251000000000000     -2.955000000000000      0.786000000000000
H      -3.323000000000000     -3.377000000000000     -0.537000000000000
H      -2.700000000000000     -4.070000000000000      2.966000000000000
H      -3.854000000000000     -5.417000000000000      2.952000000000000
H      -5.621000000000000     -3.359000000000000      3.095000000000000
H      -4.092000000000000     -2.438000000000000      3.334000000000000
H      -5.322000000000000     -1.797000000000000      5.328000000000000
H      -6.142000000000000     -3.134000000000000      6.205000000000000
H      -4.793000000000000     -2.321000000000000      7.848000000000000
H      -3.898000000000000     -3.662000000000000      7.261000000000000
H      -2.069000000000000     -2.205000000000000      8.445000000000000
H      -2.562000000000000     -0.519000000000000      8.474000000000000
H      -0.950000000000000      0.103000000000000      7.238000000000000
H      -0.875000000000000     -1.277000000000000      6.108000000000000
56

O      -0.082000000000000     -1.063000000000000      3.177000000000000
C       1.141000000000000     -1.357000000000000      3.927000000000000
C       1.890000000000000      0.008000000000000      4.011000000000000
O       3.372000000000000     -0.083000000000000      3.841000000000000
C       3.683000000000000     -0.310000000000000      2.491000000000000
C       5.170000000000000     -0.791000000000000      2.441000000000000
O       5.625000000000000     -1.148000000000000      1.133000000000000
C       6.054000000000000     -0.056000000000000      0.309000000000000
C       6.529000000000000     -0.641000000000000     -1.039000000000000
O       5.662000000000000     -1.569000000000000     -1.606000000000000
C       5.982000000000000     -2.012000000000000     -2.982000000000000
C       4.886000000000000     -1.327000000000000     -3.858000000000000
O       3.953000000000000     -2.340000000000000     -4.390000000000000
C       2.994000000000000     -2.881000000000000     -3.538000000000000
C       1.683000000000000     -2.201000000000000     -3.770000000000000
O       0.619000000000000     -3.135000000000000     -3.794000000000000
C       0.122000000000000     -3.544000000000000     -2.578000000000000
C      -1.311000000000000     -2.980000000000000     -2.371000000000000
O      -1.720000000000000     -3.315000000000000     -1.010000000000000
C      -2.884000000000000     -2.476000000000000     -0.608000000000000
C      -3.530000000000000     -2.963000000000000      0.753000000000000
O      -2.509000000000000     -3.016000000000000      1.796000000000000
C      -2.389000000000000     -1.838000000000000      2.706000000000000
C      -1.141000000000000     -2.005000000000000      3.543000000000000
H       0.746000000000000     -1.703000000000000      4.890000000000000
H       1.728000000000000     -2.111000000000000      3.389000000000000
H       1.700000000000000      0.484000000000000      4.981000000000000
H       1.575000000000000      0.708000000000000      3.227000000000000
H       3.540000000000000      0.593000000000000      1.884000000000000
H       3.121000000000000     -1.179000000000000      2.128000000000000
H       5.774000000000000     -0.004000000000000      2.910000000000000
H       5.215000000000000     -1.684000000000000      3.076000000000000
H       5.281000000000000      0.711000000000000      0.176000000000000
H       6.872000000000000      0.479000000000000      0.807000000000000
H       7.489000000000000     -1.129000000000000     -0.832000000000000
H       6.600000000000000      0.188000000000000     -1.754000000000000
H       6.943000000000000     -1.655000000000000     -3.373000000000000
H       6.027000000000000     -3.104000000000000     -3.079000000000000
H       5.461000000000000     -0.905000000000000     -4.692000000000000
H       4.412000000000000     -0.507000000000000     -3.305000000000000
H       3.366000000000000     -2.796000000000000     -2.510000000000000
H       2.904000000000000     -3.967000000000000     -3.670000000000000
H       1.495000000000000     -1.420000000000000     -3.022000000000000
H       1.776000000000000     -1.588000000000000     -4.675000000000000
H       0.776000000000000     -3.164000000000000     -1.784000000000000
H       0.020000000000000     -4.636000000000000     -2.615000000000000
H      -2.013000000000000     -3.335000000000000     -3.136000000000000
H      -1.135000000000000     -1.902000000000000     -2.476000000000000
H      -2.512000000000000     -1.444000000000000     -0.577000000000000
H      -3.688000000000000     -2.500000000000000     -1.354000000000000
H      -4.402000000000000     -2.335000000000000      0.972000000000000
H      -3.975000000000000     -3.964000000000000      0.695000000000000
H      -3.299000000000000     -1.696000000000000      3.301000000000000
H      -2.275000000000000     -0.925000000000000      2.109000000000000
H      -0.877000000000000     -3.068000000000000      3.483000000000000
H      -1.434000000000000     -1.781000000000000      4.576000000000000
56

O       0.356000000000000      0.529000000000000      3.402000000000000
C       1.612000000000000      0.151000000000000      3.905000000000000
C       2.727000000000000      0.961000000000000      3.229000000000000
O       4.061000000000000      0.448000000000000      3.555000000000000
C       4.804000000000000     -0.201000000000000      2.473000000000000
C       5.339000000000000      0.862000000000000      1.409000000000000
O       5.878000000000000      0.111000000000000      0.270000000000000
C       7.063000000000000      0.655000000000000     -0.378000000000000
C       6.687000000000000      1.415000000000000     -1.730000000000000
O       5.943000000000000      0.556000000000000     -2.611000000000000
C       5.235000000000000      1.176000000000000     -3.724000000000000
C       4.306000000000000      0.027000000000000     -4.311000000000000
O       2.971000000000000      0.240000000000000     -4.014000000000000
C       2.112000000000000     -0.921000000000000     -4.132000000000000
C       0.787000000000000     -0.402000000000000     -3.769000000000000
O      -0.108000000000000     -1.520000000000000     -3.713000000000000
C      -0.543000000000000     -1.886000000000000     -2.384000000000000
C      -1.638000000000000     -0.900000000000000     -2.007000000000000
O      -2.219000000000000     -1.262000000000000     -0.718000000000000
C      -3.061000000000000     -0.225000000000000     -0.293000000000000
C      -3.173000000000000     -0.230000000000000      1.270000000000000
O      -1.858000000000000     -0.013000000000000      1.866000000000000
C      -1.607000000000000     -0.834000000000000      3.073000000000000
C      -0.809000000000000     -0.001000000000000      4.139000000000000
H       1.712000000000000      0.227000000000000      4.995000000000000
H       1.842000000000000     -0.906000000000000      3.724000000000000
H       2.616000000000000      1.993000000000000      3.584000000000000
H       2.624000000000000      1.014000000000000      2.138000000000000
H       4.137000000000000     -1.003000000000000      2.132000000000000
H       5.691000000000000     -0.708000000000000      2.870000000000000
H       4.512000000000000      1.496000000000000      1.065000000000000
H       6.070000000000000      1.552000000000000      1.847000000000000
H       7.619000000000000      1.314000000000000      0.300000000000000
H       7.748000000000000     -0.163000000000000     -0.633000000000000
H       7.606000000000000      1.784000000000000     -2.202000000000000
H       6.173000000000000      2.270000000000000     -1.274000000000000
H       4.547000000000000      1.980000000000000     -3.431000000000000
H       5.907000000000000      1.514000000000000     -4.522000000000000
H       4.638000000000000     -0.885000000000000     -3.801000000000000
H       4.370000000000000     -0.149000000000000     -5.392000000000000
H       2.309000000000000     -1.740000000000000     -3.430000000000000
H       2.096000000000000     -1.359000000000000     -5.138000000000000
H       0.936000000000000      0.036000000000000     -2.774000000000000
H       0.493000000000000      0.322000000000000     -4.539000000000000
H       0.288000000000000     -1.694000000000000     -1.694000000000000
H      -0.859000000000000     -2.926000000000000     -2.235000000000000
H      -2.487000000000000     -0.982000000000000     -2.697000000000000
H      -1.248000000000000      0.125000000000000     -2.031000000000000
H      -2.655000000000000      0.784000000000000     -0.440000000000000
H      -4.057000000000000     -0.290000000000000     -0.748000000000000
H      -3.878000000000000      0.510000000000000      1.668000000000000
H      -3.657000000000000     -1.185000000000000      1.508000000000000
H      -1.112000000000000     -1.746000000000000      2.718000000000000
H      -2.540000000000000     -1.199000000000000      3.521000000000000
H      -0.557000000000000     -0.712000000000000      4.936000000000000
H      -1.459000000000000      0.755000000000000      4.596000000000000
56

O      -1.925000000000000      6.168000000000000      0.514000000000000
C      -0.706000000000000      5.616000000000000      1.009000000000000
C       0.480000000000000      6.245000000000000      0.291000000000000
O       1.791000000000000      5.739000000000000      0.836000000000000
C       2.218000000000000      4.498000000000000      0.411000000000000
C       3.018000000000000      4.674000000000000     -0.879000000000000
O       3.547000000000000      3.421000000000000     -1.314000000000000
C       4.264000000000000      3.495000000000000     -2.518000000000000
C       4.199000000000000      2.087000000000000     -3.133000000000000
O       3.766000000000000      2.046000000000000     -4.549000000000000
C       3.547000000000000      0.758000000000000     -5.155000000000000
C       2.145000000000000      0.128000000000000     -4.854000000000000
O       1.087000000000000      0.931000000000000     -5.544000000000000
C      -0.276000000000000      0.680000000000000     -5.197000000000000
C      -1.123000000000000      1.752000000000000     -5.920000000000000
O      -2.482000000000000      1.445000000000000     -5.723000000000000
C      -3.080000000000000      2.009000000000000     -4.500000000000000
C      -3.451000000000000      3.449000000000000     -4.689000000000000
O      -3.684000000000000      3.993000000000000     -3.365000000000000
C      -5.075000000000000      3.940000000000000     -2.905000000000000
C      -5.188000000000000      5.227000000000000     -2.031000000000000
O      -4.524000000000000      4.954000000000000     -0.819000000000000
C      -4.408000000000000      6.022000000000000      0.136000000000000
C      -3.159000000000000      5.716000000000000      1.149000000000000
H      -0.575000000000000      6.006000000000000      2.026000000000000
H      -0.666000000000000      4.520000000000000      0.979000000000000
H       0.394000000000000      7.336000000000000      0.362000000000000
H       0.365000000000000      5.883000000000000     -0.739000000000000
H       1.463000000000000      3.704000000000000      0.372000000000000
H       2.978000000000000      4.218000000000000      1.151000000000000
H       2.442000000000000      5.153000000000000     -1.680000000000000
H       3.855000000000000      5.338000000000000     -0.630000000000000
H       3.786000000000000      4.142000000000000     -3.263000000000000
H       5.265000000000000      3.910000000000000     -2.350000000000000
H       3.452000000000000      1.477000000000000     -2.610000000000000
H       5.168000000000000      1.576000000000000     -3.079000000000000
H       3.663000000000000      0.771000000000000     -6.246000000000000
H       4.259000000000000      0.024000000000000     -4.759000000000000
H       2.002000000000000      0.036000000000000     -3.770000000000000
H       2.263000000000000     -0.905000000000000     -5.205000000000000
H      -0.396000000000000      0.674000000000000     -4.107000000000000
H      -0.633000000000000     -0.317000000000000     -5.484000000000000
H      -0.899000000000000      2.749000000000000     -5.522000000000000
H      -0.917000000000000      1.746000000000000     -6.998000000000000
H      -2.409000000000000      1.848000000000000     -3.648000000000000
H      -3.932000000000000      1.403000000000000     -4.167000000000000
H      -4.358000000000000      3.658000000000000     -5.269000000000000
H      -2.584000000000000      3.887000000000000     -5.200000000000000
H      -5.853000000000000      4.048000000000000     -3.670000000000000
H      -5.316000000000000      3.073000000000000     -2.279000000000000
H      -4.649000000000000      6.059000000000000     -2.500000000000000
H      -6.239000000000000      5.495000000000000     -1.866000000000000
H      -5.368000000000000      6.112000000000000      0.659000000000000
H      -4.090000000000000      6.884000000000000     -0.464000000000000
H      -3.196000000000000      4.628000000000000      1.285000000000000
H      -3.323000000000000      6.120000000000000      2.156000000000000
56

O       1.316000000000000     -0.811000000000000     -7.041000000000000
C       0.574000000000000      0.181000000000000     -7.659000000000000
C       0.208000000000000      1.206000000000000     -6.630000000000000
O      -0.611000000000000      2.202000000000000     -7.319000000000000
C      -0.050000000000000      3.495000000000000     -7.676000000000000
C      -0.095000000000000      4.365000000000000     -6.421000000000000
O       0.850000000000000      5.381000000000000     -6.480000000000000
C       0.359000000000000      6.620000000000000     -5.933000000000000
C       1.525000000000000      7.527000000000000     -5.386000000000000
O       2.138000000000000      7.023000000000000     -4.148000000000000
C       3.342000000000000      7.799000000000000     -3.740000000000000
C       4.425000000000000      6.947000000000000     -3.075000000000000
O       5.161000000000000      6.233000000000000     -4.079000000000000
C       6.038000000000000      5.246000000000000     -3.563000000000000
C       6.944000000000000      4.679000000000000     -4.705000000000000
O       7.622000000000000      3.491000000000000     -4.171000000000000
C       6.889000000000000      2.222000000000000     -4.328000000000000
C       7.079000000000000      1.627000000000000     -5.751000000000000
O       6.333000000000000      0.354000000000000     -5.821000000000000
C       6.517000000000000     -0.412000000000000     -7.031000000000000
C       5.683000000000000     -1.709000000000000     -7.070000000000000
O       4.271000000000000     -1.503000000000000     -6.994000000000000
C       3.451000000000000     -1.289000000000000     -8.233000000000001
C       1.954000000000000     -1.676000000000000     -8.004000000000000
H       1.148000000000000      0.647000000000000     -8.468999999999999
H      -0.418000000000000     -0.127000000000000     -8.013000000000000
H       1.077000000000000      1.707000000000000     -6.185000000000000
H      -0.366000000000000      0.748000000000000     -5.815000000000000
H      -0.592000000000000      3.930000000000000     -8.525000000000000
H       0.940000000000000      3.373000000000000     -8.132000000000000
H      -1.105000000000000      4.713000000000000     -6.170000000000000
H       0.170000000000000      3.770000000000000     -5.539000000000000
H      -0.116000000000000      7.261000000000000     -6.687000000000000
H      -0.357000000000000      6.490000000000000     -5.112000000000000
H       1.245000000000000      8.587000000000000     -5.354000000000000
H       2.254000000000000      7.415000000000000     -6.199000000000000
H       3.858000000000000      8.212000000000000     -4.615000000000000
H       3.069000000000000      8.570000000000000     -3.008000000000000
H       4.054000000000000      6.230000000000000     -2.332000000000000
H       5.092000000000000      7.624000000000000     -2.526000000000000
H       5.429000000000000      4.451000000000000     -3.116000000000000
H       6.620000000000000      5.702000000000000     -2.752000000000000
H       6.437000000000000      4.298000000000000     -5.600000000000000
H       7.653000000000000      5.441000000000000     -5.049000000000000
H       5.812000000000000      2.394000000000000     -4.210000000000000
H       7.272000000000000      1.523000000000000     -3.574000000000000
H       8.154999999999999      1.511000000000000     -5.932000000000000
H       6.715000000000000      2.389000000000000     -6.450000000000000
H       6.176000000000000      0.215000000000000     -7.864000000000000
H       7.565000000000000     -0.558000000000000     -7.320000000000000
H       5.978000000000000     -2.256000000000000     -7.974000000000000
H       5.916000000000000     -2.400000000000000     -6.250000000000000
H       3.818000000000000     -1.863000000000000     -9.092000000000001
H       3.629000000000000     -0.231000000000000     -8.462999999999999
H       1.867000000000000     -2.709000000000000     -7.647000000000000
H       1.431000000000000     -1.634000000000000     -8.968000000000000
56

O       0.388000000000000      2.630000000000000     -8.882999999999999
C       0.321000000000000      1.673000000000000    -10.007000000000000
C      -1.057000000000000      1.576000000000000    -10.667000000000000
O      -2.143000000000000      1.470000000000000     -9.706000000000000
C      -3.421000000000000      0.983000000000000    -10.166000000000000
C      -4.217000000000000      0.755000000000000     -8.850000000000000
O      -4.520000000000000      1.989000000000000     -8.145000000000000
C      -5.577000000000000      1.901000000000000     -7.183000000000000
C      -6.213000000000000      3.329000000000000     -7.036000000000000
O      -5.589000000000000      3.943000000000000     -5.893000000000000
C      -6.020000000000000      5.322000000000000     -5.649000000000000
C      -4.750000000000000      6.189000000000000     -5.458000000000000
O      -4.967000000000000      7.559000000000000     -5.380000000000000
C      -3.786000000000000      8.367000000000001     -5.105000000000000
C      -3.434000000000000      9.070000000000000     -6.429000000000000
O      -2.414000000000000     10.074999999999999     -6.079000000000000
C      -1.010000000000000      9.680999999999999     -5.792000000000000
C      -0.369000000000000      9.411000000000000     -7.199000000000000
O       0.958000000000000      8.927000000000000     -7.007000000000000
C       1.192000000000000      7.503000000000000     -7.190000000000000
C       1.173000000000000      7.068000000000000     -8.743000000000000
O       2.058000000000000      5.927000000000000     -8.823000000000000
C       1.508000000000000      4.651000000000000     -8.343000000000000
C       0.650000000000000      3.928000000000000     -9.401000000000000
H       1.096000000000000      1.937000000000000    -10.737000000000000
H       0.646000000000000      0.704000000000000     -9.609000000000000
H      -1.140000000000000      0.776000000000000    -11.413000000000000
H      -1.173000000000000      2.497000000000000    -11.252000000000001
H      -3.388000000000000     -0.039000000000000    -10.565000000000000
H      -3.849000000000000      1.668000000000000    -10.907999999999999
H      -5.186000000000000      0.384000000000000     -9.204000000000001
H      -3.861000000000000     -0.066000000000000     -8.214000000000000
H      -6.361000000000000      1.256000000000000     -7.597000000000000
H      -5.207000000000000      1.543000000000000     -6.214000000000000
H      -7.293000000000000      3.247000000000000     -6.864000000000000
H      -5.984000000000000      3.904000000000000     -7.941000000000000
H      -6.647000000000000      5.799000000000000     -6.412000000000000
H      -6.489000000000000      5.410000000000000     -4.661000000000000
H      -4.062000000000000      6.018000000000000     -6.295000000000000
H      -4.302000000000000      5.837000000000000     -4.521000000000000
H      -2.949000000000000      7.740000000000000     -4.775000000000000
H      -4.077000000000000      9.093000000000000     -4.335000000000000
H      -2.952000000000000      8.294000000000000     -7.036000000000000
H      -4.315000000000000      9.574999999999999     -6.846000000000000
H      -0.994000000000000      8.798000000000000     -5.142000000000000
H      -0.524000000000000     10.512000000000000     -5.264000000000000
H      -0.360000000000000     10.387000000000000     -7.699000000000000
H      -0.973000000000000      8.606000000000000     -7.636000000000000
H       2.202000000000000      7.337000000000000     -6.797000000000000
H       0.454000000000000      6.949000000000000     -6.598000000000000
H       0.156000000000000      6.834000000000000     -9.081000000000000
H       1.515000000000000      7.872000000000000     -9.407000000000000
H       0.817000000000000      4.833000000000000     -7.510000000000000
H       2.388000000000000      4.087000000000000     -8.010999999999999
H       1.341000000000000      3.934000000000000    -10.253000000000000
H      -0.246000000000000      4.489000000000000     -9.696000000000000
56

O       4.119000000000000      2.087000000000000     -9.409000000000001
C       3.474000000000000      1.851000000000000    -10.693000000000000
C       1.948000000000000      1.760000000000000    -10.523999999999999
O       1.544000000000000      3.056000000000000     -9.940000000000000
C       0.142000000000000      3.224000000000000     -9.885000000000000
C      -0.267000000000000      4.395000000000000     -8.869999999999999
O      -0.710000000000000      3.730000000000000     -7.709000000000000
C      -1.330000000000000      4.613000000000000     -6.737000000000000
C      -0.223000000000000      5.384000000000000     -5.962000000000000
O      -0.876000000000000      6.555000000000000     -5.364000000000000
C      -0.152000000000000      7.761000000000000     -5.538000000000000
C       0.796000000000000      7.920000000000000     -4.336000000000000
O       1.759000000000000      8.932000000000000     -4.610000000000000
C       2.732000000000000      9.266000000000000     -3.586000000000000
C       3.871000000000000      8.147000000000000     -3.557000000000000
O       4.946000000000000      8.452999999999999     -4.464000000000000
C       6.095000000000000      7.624000000000000     -4.452000000000000
C       6.254000000000000      6.998000000000000     -5.855000000000000
O       7.515000000000000      6.222000000000000     -5.841000000000000
C       7.320000000000000      4.792000000000000     -6.155000000000000
C       7.225000000000000      4.665000000000000     -7.670000000000000
O       7.199000000000000      3.281000000000000     -8.005000000000001
C       6.015000000000000      2.506000000000000     -7.953000000000000
C       5.547000000000000      2.446000000000000     -9.462999999999999
H       3.708000000000000      2.641000000000000    -11.417000000000000
H       3.736000000000000      0.889000000000000    -11.148000000000000
H       1.752000000000000      0.888000000000000     -9.888999999999999
H       1.507000000000000      1.646000000000000    -11.522000000000000
H      -0.313000000000000      2.251000000000000     -9.660000000000000
H      -0.135000000000000      3.466000000000000    -10.919000000000000
H       0.597000000000000      5.034000000000000     -8.645000000000000
H      -1.106000000000000      4.984000000000000     -9.257999999999999
H      -1.999000000000000      5.280000000000000     -7.294000000000000
H      -2.008000000000000      4.020000000000000     -6.110000000000000
H       0.487000000000000      5.666000000000000     -6.749000000000000
H       0.314000000000000      4.823000000000000     -5.187000000000000
H       0.469000000000000      7.732000000000000     -6.442000000000000
H      -0.923000000000000      8.529999999999999     -5.671000000000000
H       1.244000000000000      6.939000000000000     -4.139000000000000
H       0.222000000000000      8.224000000000000     -3.451000000000000
H       2.171000000000000      9.083000000000000     -2.661000000000000
H       3.123000000000000     10.288000000000000     -3.661000000000000
H       4.218000000000000      8.051000000000000     -2.520000000000000
H       3.495000000000000      7.160000000000000     -3.856000000000000
H       6.030000000000000      6.764000000000000     -3.775000000000000
H       6.997000000000000      8.192000000000000     -4.194000000000000
H       6.522000000000000      7.759000000000000     -6.598000000000000
H       5.318000000000000      6.466000000000000     -6.066000000000000
H       8.143000000000001      4.237000000000000     -5.687000000000000
H       6.393000000000000      4.392000000000000     -5.727000000000000
H       6.243000000000000      5.083000000000000     -7.922000000000000
H       8.002000000000001      5.240000000000000     -8.189000000000000
H       5.290000000000000      2.949000000000000     -7.259000000000000
H       6.164000000000000      1.481000000000000     -7.591000000000000
H       6.115000000000000      1.664000000000000     -9.983000000000001
H       5.731000000000000      3.456000000000000     -9.850000000000000
56

O      -3.653000000000000      1.816000000000000     -9.337999999999999
C      -4.747000000000000      1.804000000000000     -8.487000000000000
C      -5.461000000000000      3.210000000000000     -8.484999999999999
O      -4.591000000000000      4.270000000000000     -8.118000000000000
C      -4.680000000000000      4.642000000000000     -6.756000000000000
C      -3.811000000000000      5.876000000000000     -6.447000000000000
O      -2.395000000000000      5.427000000000000     -6.605000000000000
C      -1.444000000000000      6.125000000000000     -5.760000000000000
C      -0.030000000000000      5.815000000000000     -6.285000000000000
O       0.631000000000000      4.928000000000000     -5.357000000000000
C       1.987000000000000      4.573000000000000     -5.812000000000000
C       2.601000000000000      3.465000000000000     -4.806000000000000
O       3.789000000000000      2.857000000000000     -5.477000000000000
C       4.070000000000000      1.528000000000000     -5.091000000000000
C       4.933000000000000      0.786000000000000     -6.187000000000000
O       4.338000000000000      0.641000000000000     -7.492000000000000
C       3.482000000000000     -0.545000000000000     -7.604000000000000
C       2.995000000000000     -0.703000000000000     -9.052000000000000
O       2.041000000000000     -1.777000000000000     -9.224000000000000
C       0.640000000000000     -1.447000000000000     -8.897000000000000
C      -0.204000000000000     -1.310000000000000    -10.190000000000000
O      -1.600000000000000     -1.090000000000000     -9.789000000000000
C      -1.964000000000000      0.140000000000000     -9.202000000000000
C      -3.216000000000000      0.640000000000000     -9.972000000000000
H      -5.437000000000000      1.006000000000000     -8.789000000000000
H      -4.466000000000000      1.451000000000000     -7.487000000000000
H      -6.393000000000000      3.122000000000000     -7.914000000000000
H      -5.802000000000000      3.360000000000000     -9.516999999999999
H      -4.272000000000000      3.858000000000000     -6.106000000000000
H      -5.711000000000000      4.826000000000000     -6.431000000000000
H      -4.011000000000000      6.695000000000000     -7.148000000000000
H      -3.988000000000000      6.150000000000000     -5.399000000000000
H      -1.631000000000000      7.205000000000000     -5.720000000000000
H      -1.621000000000000      5.778000000000000     -4.735000000000000
H       0.517000000000000      6.752000000000000     -6.444000000000000
H      -0.063000000000000      5.267000000000000     -7.234000000000000
H       2.043000000000000      4.241000000000000     -6.856000000000000
H       2.615000000000000      5.472000000000000     -5.819000000000000
H       1.834000000000000      2.686000000000000     -4.709000000000000
H       2.957000000000000      3.712000000000000     -3.798000000000000
H       3.127000000000000      0.983000000000000     -4.961000000000000
H       4.799000000000000      1.520000000000000     -4.271000000000000
H       5.860000000000000      1.355000000000000     -6.333000000000000
H       5.177000000000000     -0.226000000000000     -5.842000000000000
H       2.603000000000000     -0.365000000000000     -6.972000000000000
H       4.019000000000000     -1.447000000000000     -7.287000000000000
H       3.847000000000000     -0.921000000000000     -9.708000000000000
H       2.539000000000000      0.254000000000000     -9.335000000000001
H       0.146000000000000     -2.201000000000000     -8.272000000000000
H       0.520000000000000     -0.448000000000000     -8.459000000000000
H       0.139000000000000     -0.467000000000000    -10.802000000000000
H       0.074000000000000     -2.198000000000000    -10.770000000000000
H      -1.115000000000000      0.794000000000000     -9.436000000000000
H      -2.048000000000000      0.083000000000000     -8.109999999999999
H      -4.026000000000000     -0.097000000000000     -9.906000000000001
H      -3.070000000000000      0.897000000000000    -11.028000000000000
56

O      -1.720000000000000      5.046000000000000     -5.920000000000000
C      -1.984000000000000      6.413000000000000     -5.726000000000000
C      -0.659000000000000      7.194000000000000     -5.547000000000000
O      -0.080000000000000      6.895000000000000     -4.250000000000000
C       0.823000000000000      7.912000000000000     -3.791000000000000
C       2.186000000000000      7.650000000000000     -4.321000000000000
O       2.811000000000000      6.527000000000000     -3.756000000000000
C       3.990000000000000      6.175000000000000     -4.570000000000000
C       4.726000000000000      4.874000000000000     -4.109000000000000
O       5.661000000000000      4.457000000000000     -5.174000000000000
C       5.100000000000000      3.754000000000000     -6.285000000000000
C       6.241000000000000      3.461000000000000     -7.242000000000000
O       5.965000000000000      2.171000000000000     -7.961000000000000
C       5.248000000000000      2.333000000000000     -9.167000000000000
C       4.963000000000000      0.900000000000000     -9.750000000000000
O       3.537000000000000      0.643000000000000    -10.119000000000000
C       2.868000000000000      1.467000000000000    -11.095000000000001
C       1.474000000000000      0.956000000000000    -11.210000000000001
O       0.639000000000000      1.383000000000000    -10.151999999999999
C      -0.777000000000000      1.296000000000000    -10.494000000000000
C      -1.536000000000000      1.473000000000000     -9.240000000000000
O      -1.507000000000000      2.894000000000000     -8.885999999999999
C      -1.594000000000000      3.207000000000000     -7.494000000000000
C      -1.838000000000000      4.706000000000000     -7.325000000000000
H      -2.509000000000000      6.915000000000000     -6.548000000000000
H      -2.712000000000000      6.527000000000000     -4.913000000000000
H      -1.020000000000000      8.220000000000001     -5.694000000000000
H       0.044000000000000      7.083000000000000     -6.382000000000000
H       0.814000000000000      7.967000000000000     -2.696000000000000
H       0.448000000000000      8.869999999999999     -4.170000000000000
H       2.200000000000000      7.585000000000000     -5.416000000000000
H       2.793000000000000      8.522000000000000     -4.050000000000000
H       3.745000000000000      6.115000000000000     -5.638000000000000
H       4.753000000000000      6.956000000000000     -4.464000000000000
H       3.878000000000000      4.185000000000000     -4.011000000000000
H       5.284000000000000      5.072000000000000     -3.185000000000000
H       4.642000000000000      2.840000000000000     -5.886000000000000
H       4.334000000000000      4.328000000000000     -6.822000000000000
H       7.139000000000000      3.300000000000000     -6.634000000000000
H       6.366000000000000      4.328000000000000     -7.902000000000000
H       5.732000000000000      2.966000000000000     -9.920999999999999
H       4.283000000000000      2.812000000000000     -8.956000000000000
H       5.520000000000000      0.825000000000000    -10.692000000000000
H       5.365000000000000      0.093000000000000     -9.125000000000000
H       3.328000000000000      1.240000000000000    -12.066000000000001
H       3.065000000000000      2.539000000000000    -10.964000000000000
H       1.469000000000000     -0.121000000000000    -11.419000000000000
H       1.180000000000000      1.502000000000000    -12.116000000000000
H      -1.078000000000000      1.996000000000000    -11.284000000000001
H      -1.005000000000000      0.308000000000000    -10.912000000000001
H      -2.534000000000000      1.105000000000000     -9.507000000000000
H      -1.283000000000000      0.814000000000000     -8.400000000000000
H      -0.657000000000000      2.951000000000000     -6.985000000000000
H      -2.325000000000000      2.590000000000000     -6.958000000000000
H      -2.860000000000000      4.957000000000000     -7.637000000000000
H      -1.094000000000000      5.280000000000000     -7.891000000000000
56

O      -3.227000000000000      4.895000000000000     -8.323000000000000
C      -2.861000000000000      6.193000000000000     -7.736000000000000
C      -1.722000000000000      6.058000000000000     -6.773000000000000
O      -0.576000000000000      5.574000000000000     -7.477000000000000
C       0.687000000000000      5.782000000000000     -6.723000000000000
C       1.840000000000000      5.234000000000000     -7.631000000000000
O       1.882000000000000      3.833000000000000     -7.306000000000000
C       2.746000000000000      3.023000000000000     -8.131000000000000
C       1.866000000000000      2.415000000000000     -9.340999999999999
O       2.531000000000000      1.196000000000000     -9.834000000000000
C       1.656000000000000      0.123000000000000    -10.132000000000000
C       1.092000000000000      0.173000000000000    -11.571000000000000
O       0.720000000000000     -1.095000000000000    -12.058999999999999
C      -0.572000000000000     -1.596000000000000    -11.654999999999999
C      -1.701000000000000     -1.140000000000000    -12.600000000000000
O      -2.753000000000000     -2.026000000000000    -12.432000000000000
C      -3.593000000000000     -1.850000000000000    -11.284000000000001
C      -4.650000000000000     -0.786000000000000    -11.638999999999999
O      -5.600000000000000     -0.708000000000000    -10.632000000000000
C      -5.332000000000000      0.086000000000000     -9.459000000000000
C      -5.381000000000000      1.565000000000000     -9.795999999999999
O      -4.865000000000000      2.182000000000000     -8.593999999999999
C      -5.278000000000000      3.473000000000000     -8.298000000000000
C      -4.081000000000000      4.063000000000000     -7.497000000000000
H      -2.642000000000000      6.870000000000000     -8.571999999999999
H      -3.638000000000000      6.604000000000000     -7.080000000000000
H      -1.935000000000000      5.431000000000000     -5.898000000000000
H      -1.510000000000000      7.070000000000000     -6.408000000000000
H       0.650000000000000      5.212000000000000     -5.786000000000000
H       0.954000000000000      6.807000000000000     -6.440000000000000
H       1.668000000000000      5.320000000000000     -8.711000000000000
H       2.726000000000000      5.802000000000000     -7.321000000000000
H       3.540000000000000      3.608000000000000     -8.612000000000000
H       3.271000000000000      2.251000000000000     -7.555000000000000
H       1.786000000000000      3.170000000000000    -10.132999999999999
H       0.871000000000000      2.152000000000000     -8.961000000000000
H       2.219000000000000     -0.805000000000000     -9.968999999999999
H       0.832000000000000      0.072000000000000     -9.410000000000000
H       1.704000000000000      0.709000000000000    -12.307000000000000
H       0.123000000000000      0.680000000000000    -11.484000000000000
H      -0.862000000000000     -1.453000000000000    -10.606999999999999
H      -0.577000000000000     -2.692000000000000    -11.707000000000001
H      -1.867000000000000     -0.084000000000000    -12.353000000000000
H      -1.393000000000000     -1.247000000000000    -13.647000000000000
H      -3.050000000000000     -1.498000000000000    -10.398999999999999
H      -4.186000000000000     -2.758000000000000    -11.114000000000001
H      -5.117000000000000     -1.131000000000000    -12.569000000000001
H      -4.136000000000000      0.171000000000000    -11.797000000000001
H      -6.048000000000000     -0.234000000000000     -8.692000000000000
H      -4.335000000000000     -0.130000000000000     -9.057000000000000
H      -4.827000000000000      1.813000000000000    -10.710000000000001
H      -6.458000000000000      1.765000000000000     -9.859999999999999
H      -6.181000000000000      3.469000000000000     -7.674000000000000
H      -5.498000000000000      4.103000000000000     -9.169000000000000
H      -3.451000000000000      3.300000000000000     -7.023000000000000
H      -4.477000000000000      4.684000000000000     -6.684000000000000
56

O      -1.820000000000000      4.359000000000000     -9.211000000000000
C      -1.594000000000000      5.300000000000000     -8.099000000000000
C      -0.479000000000000      4.754000000000000     -7.178000000000000
O       0.769000000000000      4.585000000000000     -7.847000000000000
C       1.976000000000000      5.162000000000000     -7.242000000000000
C       3.077000000000000      4.235000000000000     -7.616000000000000
O       3.555000000000000      4.556000000000000     -8.949999999999999
C       4.846000000000000      4.066000000000000     -9.345000000000001
C       4.730000000000000      2.673000000000000    -10.119000000000000
O       5.421000000000000      2.689000000000000    -11.423999999999999
C       5.480000000000000      1.551000000000000    -12.250000000000000
C       4.101000000000000      0.925000000000000    -12.465000000000000
O       3.382000000000000      1.671000000000000    -13.488000000000000
C       3.672000000000000      1.411000000000000    -14.798000000000000
C       2.389000000000000      1.222000000000000    -15.618000000000000
O       1.938000000000000      2.477000000000000    -16.210999999999999
C       1.411000000000000      3.458000000000000    -15.311000000000000
C       0.222000000000000      4.211000000000000    -15.939000000000000
O      -0.852000000000000      4.377000000000000    -14.968000000000000
C      -0.570000000000000      5.627000000000000    -14.159000000000001
C      -1.751000000000000      6.056000000000000    -13.215999999999999
O      -2.214000000000000      5.042000000000000    -12.215000000000000
C      -2.916000000000000      5.542000000000000    -11.070000000000000
C      -3.130000000000000      4.531000000000000     -9.916000000000000
H      -1.344000000000000      6.323000000000000     -8.406000000000001
H      -2.551000000000000      5.527000000000000     -7.612000000000000
H      -0.647000000000000      3.826000000000000     -6.616000000000000
H      -0.396000000000000      5.593000000000000     -6.477000000000000
H       1.866000000000000      5.334000000000000     -6.164000000000000
H       2.259000000000000      6.081000000000000     -7.770000000000000
H       3.906000000000000      4.445000000000000     -6.928000000000000
H       2.829000000000000      3.186000000000000     -7.412000000000000
H       5.397000000000000      4.663000000000000    -10.082000000000001
H       5.510000000000000      3.813000000000000     -8.510000000000000
H       3.674000000000000      2.424000000000000    -10.282000000000000
H       5.244000000000000      1.907000000000000     -9.526000000000000
H       5.815000000000000      1.832000000000000    -13.256000000000000
H       6.245000000000000      0.824000000000000    -11.951000000000001
H       3.494000000000000      0.998000000000000    -11.554000000000000
H       4.037000000000000     -0.127000000000000    -12.771000000000001
H       4.274000000000000      0.498000000000000    -14.885000000000000
H       4.195000000000000      2.267000000000000    -15.242000000000001
H       2.707000000000000      0.576000000000000    -16.446000000000002
H       1.625000000000000      0.723000000000000    -15.010000000000000
H       2.125000000000000      4.253000000000000    -15.061000000000000
H       1.034000000000000      2.999000000000000    -14.388000000000000
H      -0.091000000000000      3.544000000000000    -16.751999999999999
H       0.500000000000000      5.118000000000000    -16.491000000000000
H       0.287000000000000      5.428000000000000    -13.504000000000000
H      -0.342000000000000      6.507000000000000    -14.772000000000000
H      -1.528000000000000      6.964000000000000    -12.643000000000001
H      -2.614000000000000      6.206000000000000    -13.877000000000001
H      -3.885000000000000      5.958000000000000    -11.374000000000001
H      -2.230000000000000      6.273000000000000    -10.625999999999999
H      -3.516000000000000      3.567000000000000    -10.270000000000000
H      -3.880000000000000      4.924000000000000     -9.218000000000000
56

O      -1.914000000000000     -0.854000000000000    -11.445000000000000
C      -3.178000000000000     -0.619000000000000    -10.951000000000001
C      -3.127000000000000      0.864000000000000    -10.606000000000000
O      -2.343000000000000      1.049000000000000     -9.503000000000000
C      -1.910000000000000      2.415000000000000     -9.289999999999999
C      -0.967000000000000      2.449000000000000     -7.993000000000000
O       0.258000000000000      1.706000000000000     -8.191000000000001
C       1.223000000000000      2.049000000000000     -7.168000000000000
C       2.441000000000000      1.028000000000000     -7.424000000000000
O       3.655000000000000      1.592000000000000     -6.865000000000000
C       4.888000000000000      1.045000000000000     -7.326000000000000
C       5.162000000000000      1.413000000000000     -8.821000000000000
O       4.502000000000000      0.545000000000000     -9.712000000000000
C       4.882000000000000     -0.853000000000000     -9.689000000000000
C       5.777000000000000     -1.141000000000000    -10.897000000000000
O       5.030000000000000     -0.874000000000000    -12.175000000000001
C       4.256000000000000     -1.970000000000000    -12.638000000000000
C       3.283000000000000     -1.497000000000000    -13.766000000000000
O       2.626000000000000     -2.682000000000000    -14.268000000000001
C       1.228000000000000     -2.878000000000000    -13.690000000000000
C       0.156000000000000     -2.305000000000000    -14.701000000000001
O      -0.858000000000000     -1.559000000000000    -13.989000000000001
C      -1.806000000000000     -2.412000000000000    -13.262000000000000
C      -1.610000000000000     -2.199000000000000    -11.778000000000000
H      -3.946000000000000     -1.040000000000000    -11.611000000000001
H      -3.262000000000000     -1.203000000000000    -10.026000000000000
H      -4.159000000000000      1.209000000000000    -10.468999999999999
H      -2.619000000000000      1.410000000000000    -11.410000000000000
H      -2.755000000000000      3.114000000000000     -9.253000000000000
H      -1.271000000000000      2.760000000000000    -10.113000000000000
H      -0.759000000000000      3.509000000000000     -7.801000000000000
H      -1.527000000000000      2.000000000000000     -7.163000000000000
H       1.605000000000000      3.055000000000000     -7.382000000000000
H       0.937000000000000      1.827000000000000     -6.133000000000000
H       2.447000000000000      0.928000000000000     -8.516999999999999
H       2.345000000000000      0.022000000000000     -6.998000000000000
H       5.745000000000000      1.441000000000000     -6.767000000000000
H       4.924000000000000     -0.019000000000000     -7.062000000000000
H       6.214000000000000      1.208000000000000     -9.053000000000001
H       4.906000000000000      2.472000000000000     -8.946000000000000
H       4.007000000000000     -1.503000000000000     -9.816000000000001
H       5.350000000000000     -1.161000000000000     -8.746000000000000
H       6.661000000000000     -0.500000000000000    -10.795000000000000
H       6.068000000000000     -2.197000000000000    -10.837000000000000
H       3.651000000000000     -2.477000000000000    -11.877000000000001
H       4.947000000000000     -2.686000000000000    -13.099000000000000
H       3.816000000000000     -1.120000000000000    -14.648000000000000
H       2.515000000000000     -0.784000000000000    -13.443000000000000
H       1.073000000000000     -3.961000000000000    -13.605000000000000
H       1.215000000000000     -2.479000000000000    -12.667999999999999
H       0.789000000000000     -1.788000000000000    -15.433000000000000
H      -0.311000000000000     -3.099000000000000    -15.297000000000001
H      -1.665000000000000     -3.484000000000000    -13.446999999999999
H      -2.823000000000000     -2.050000000000000    -13.459000000000000
H      -0.539000000000000     -2.412000000000000    -11.673000000000000
H      -2.212000000000000     -2.916000000000000    -11.207000000000001
56

O      -4.659000000000000      1.910000000000000    -12.356999999999999
C      -5.119000000000000      2.101000000000000    -11.041000000000000
C      -4.048000000000000      1.639000000000000    -10.074000000000000
O      -3.446000000000000      2.806000000000000     -9.423000000000000
C      -2.195000000000000      3.401000000000000     -9.920999999999999
C      -0.996000000000000      3.183000000000000     -9.016999999999999
O      -0.671000000000000      1.728000000000000     -8.913000000000000
C       0.684000000000000      1.609000000000000     -8.581000000000000
C       0.871000000000000      0.325000000000000     -7.713000000000000
O       0.353000000000000     -0.807000000000000     -8.414000000000000
C       0.612000000000000     -2.060000000000000     -7.755000000000000
C       1.521000000000000     -2.912000000000000     -8.563000000000001
O       0.781000000000000     -3.547000000000000     -9.635000000000000
C       0.547000000000000     -4.979000000000000     -9.613000000000000
C      -0.317000000000000     -5.479000000000000    -10.811999999999999
O      -1.662000000000000     -5.079000000000000    -10.635999999999999
C      -2.614000000000000     -5.774000000000000    -11.442000000000000
C      -2.834000000000000     -5.135000000000000    -12.811999999999999
O      -3.770000000000000     -4.102000000000000    -12.561999999999999
C      -4.113000000000000     -3.310000000000000    -13.641999999999999
C      -4.884000000000000     -2.039000000000000    -13.121000000000000
O      -4.143000000000000     -0.793000000000000    -13.513999999999999
C      -4.917000000000000      0.268000000000000    -14.163000000000000
C      -5.599000000000000      1.044000000000000    -13.125999999999999
H      -5.267000000000000      3.160000000000000    -10.795000000000000
H      -6.005000000000000      1.527000000000000    -10.744000000000000
H      -3.290000000000000      1.073000000000000    -10.629000000000000
H      -4.611000000000000      0.996000000000000     -9.387000000000000
H      -2.332000000000000      4.477000000000000    -10.081000000000000
H      -1.951000000000000      2.968000000000000    -10.898999999999999
H      -0.139000000000000      3.760000000000000     -9.385000000000000
H      -1.236000000000000      3.561000000000000     -8.016000000000000
H       1.312000000000000      1.588000000000000     -9.478999999999999
H       1.003000000000000      2.430000000000000     -7.927000000000000
H       0.291000000000000      0.546000000000000     -6.808000000000000
H       1.914000000000000      0.283000000000000     -7.374000000000000
H       0.960000000000000     -1.880000000000000     -6.730000000000000
H      -0.341000000000000     -2.562000000000000     -7.550000000000000
H       1.860000000000000     -3.691000000000000     -7.869000000000000
H       2.380000000000000     -2.308000000000000     -8.879000000000000
H      -0.010000000000000     -5.255000000000000     -8.710000000000001
H       1.508000000000000     -5.507000000000000     -9.584000000000000
H       0.079000000000000     -5.091000000000000    -11.759000000000000
H      -0.397000000000000     -6.570000000000000    -10.893000000000001
H      -3.571000000000000     -5.794000000000000    -10.906000000000001
H      -2.291000000000000     -6.821000000000000    -11.484000000000000
H      -3.152000000000000     -5.965000000000000    -13.455000000000000
H      -1.934000000000000     -4.676000000000000    -13.238000000000000
H      -3.256000000000000     -2.828000000000000    -14.129000000000000
H      -4.752000000000000     -3.964000000000000    -14.247000000000000
H      -5.914000000000000     -2.049000000000000    -13.500000000000000
H      -5.025000000000000     -2.124000000000000    -12.036000000000000
H      -5.548000000000000     -0.142000000000000    -14.962000000000000
H      -4.244000000000000      1.014000000000000    -14.603999999999999
H      -6.193000000000000      0.439000000000000    -12.430000000000000
H      -6.250000000000000      1.678000000000000    -13.740000000000000
56

O       1.853000000000000      7.321000000000000    -11.317000000000000
C       1.893000000000000      7.040000000000000     -9.888999999999999
C       3.308000000000000      6.763000000000000     -9.410000000000000
O       3.250000000000000      5.919000000000000     -8.243000000000000
C       4.560000000000000      5.726000000000000     -7.673000000000000
C       4.418000000000000      4.420000000000000     -6.868000000000000
O       4.044000000000000      3.358000000000000     -7.719000000000000
C       4.342000000000000      1.988000000000000     -7.209000000000000
C       4.524000000000000      1.010000000000000     -8.361000000000001
O       3.280000000000000      0.867000000000000     -9.103000000000000
C       2.927000000000000     -0.432000000000000     -9.696000000000000
C       3.358000000000000     -0.517000000000000    -11.125999999999999
O       2.817000000000000      0.610000000000000    -11.912000000000001
C       3.442000000000000      0.892000000000000    -13.193000000000000
C       2.285000000000000      0.643000000000000    -14.252000000000001
O       1.176000000000000      1.368000000000000    -14.095000000000001
C       1.187000000000000      2.829000000000000    -14.340000000000000
C       0.813000000000000      3.173000000000000    -15.772000000000000
O       1.159000000000000      4.617000000000000    -16.010000000000002
C       0.159000000000000      5.570000000000000    -16.067000000000000
C      -0.602000000000000      5.734000000000000    -14.744999999999999
O       0.270000000000000      6.477000000000000    -13.852000000000000
C      -0.258000000000000      6.604000000000000    -12.504000000000000
C       0.496000000000000      7.709000000000000    -11.770000000000000
H       1.565000000000000      7.953000000000000     -9.377000000000001
H       1.202000000000000      6.263000000000000     -9.539999999999999
H       3.705000000000000      7.731000000000000     -9.081000000000000
H       3.986000000000000      6.342000000000000    -10.162000000000001
H       4.887000000000000      6.562000000000000     -7.044000000000000
H       5.279000000000000      5.621000000000000     -8.494999999999999
H       5.373000000000000      4.218000000000000     -6.368000000000000
H       3.602000000000000      4.559000000000000     -6.148000000000000
H       5.261000000000000      2.041000000000000     -6.613000000000000
H       3.585000000000000      1.793000000000000     -6.440000000000000
H       4.824000000000000      0.071000000000000     -7.880000000000000
H       5.362000000000000      1.317000000000000     -8.999000000000001
H       3.377000000000000     -1.265000000000000     -9.141000000000000
H       1.834000000000000     -0.512000000000000     -9.739000000000001
H       3.023000000000000     -1.479000000000000    -11.532000000000000
H       4.450000000000000     -0.612000000000000    -11.080000000000000
H       4.278000000000000      0.215000000000000    -13.406000000000001
H       3.828000000000000      1.915000000000000    -13.275000000000000
H       2.702000000000000      0.833000000000000    -15.247999999999999
H       2.013000000000000     -0.420000000000000    -14.260000000000000
H       2.178000000000000      3.258000000000000    -14.148000000000000
H       0.522000000000000      3.359000000000000    -13.647000000000000
H      -0.277000000000000      3.053000000000000    -15.760000000000000
H       1.247000000000000      2.547000000000000    -16.561000000000000
H       0.641000000000000      6.492000000000000    -16.416000000000000
H      -0.564000000000000      5.305000000000000    -16.849000000000000
H      -1.546000000000000      6.263000000000000    -14.923999999999999
H      -1.032000000000000      4.827000000000000    -14.301000000000000
H      -0.201000000000000      5.622000000000000    -12.018000000000001
H      -1.330000000000000      6.825000000000000    -12.569000000000001
H      -0.192000000000000      8.036000000000000    -10.981000000000000
H       0.577000000000000      8.542000000000000    -12.478999999999999
56

O       7.008000000000000      4.644000000000000     -8.888000000000000
C       5.818000000000000      4.861000000000000     -8.194000000000001
C       5.975000000000000      5.000000000000000     -6.713000000000000
O       6.133000000000000      3.695000000000000     -6.023000000000000
C       6.282000000000000      3.863000000000000     -4.581000000000000
C       6.637000000000000      2.466000000000000     -3.936000000000000
O       8.097000000000000      2.351000000000000     -4.125000000000000
C       8.750000000000000      1.158000000000000     -3.703000000000000
C       9.185000000000000      0.438000000000000     -5.023000000000000
O       9.499000000000001     -1.015000000000000     -4.741000000000000
C      10.146000000000001     -1.792000000000000     -5.802000000000000
C       9.032000000000000     -2.452000000000000     -6.766000000000000
O       9.564000000000000     -2.589000000000000     -8.095000000000001
C       8.587000000000000     -3.120000000000000     -9.019000000000000
C       9.042000000000000     -3.328000000000000    -10.497999999999999
O       9.781000000000001     -2.151000000000000    -10.923999999999999
C       9.576000000000001     -1.661000000000000    -12.289000000000000
C       8.499000000000001     -0.523000000000000    -12.368000000000000
O       9.007999999999999      0.512000000000000    -11.611000000000001
C       9.301000000000000      1.709000000000000    -12.333000000000000
C       7.970000000000000      2.606000000000000    -12.625000000000000
O       8.202999999999999      4.021000000000000    -12.284000000000001
C       8.315000000000000      4.204000000000000    -10.834000000000000
C       6.872000000000000      4.406000000000000    -10.311000000000000
H       5.394000000000000      5.775000000000000     -8.631000000000000
H       5.164000000000000      4.010000000000000     -8.422000000000001
H       5.136000000000000      5.532000000000000     -6.248000000000000
H       6.890000000000000      5.604000000000000     -6.675000000000000
H       5.319000000000000      4.217000000000000     -4.194000000000000
H       7.148000000000000      4.515000000000000     -4.412000000000000
H       6.324000000000000      2.501000000000000     -2.886000000000000
H       6.099000000000000      1.665000000000000     -4.458000000000000
H       9.608000000000001      1.330000000000000     -3.040000000000000
H       7.986000000000000      0.496000000000000     -3.279000000000000
H      10.047000000000001      0.963000000000000     -5.453000000000000
H       8.324999999999999      0.424000000000000     -5.705000000000000
H      10.786000000000000     -1.108000000000000     -6.373000000000000
H      10.853999999999999     -2.489000000000000     -5.336000000000000
H       8.058000000000000     -1.947000000000000     -6.775000000000000
H       8.807000000000000     -3.452000000000000     -6.375000000000000
H       7.688000000000000     -2.494000000000000     -8.952000000000000
H       8.276000000000000     -4.114000000000000     -8.673999999999999
H       9.694000000000001     -4.197000000000000    -10.647000000000000
H       8.159000000000001     -3.471000000000000    -11.132999999999999
H       9.246000000000000     -2.526000000000000    -12.878000000000000
H      10.499000000000001     -1.202000000000000    -12.663000000000000
H       7.646000000000000     -0.969000000000000    -11.843000000000000
H       8.212999999999999     -0.286000000000000    -13.400000000000000
H       9.946999999999999      2.338000000000000    -11.709000000000000
H       9.726000000000001      1.494000000000000    -13.321000000000000
H       7.761000000000000      2.530000000000000    -13.699000000000000
H       7.113000000000000      2.219000000000000    -12.058999999999999
H       8.871000000000000      5.110000000000000    -10.564000000000000
H       8.788000000000000      3.338000000000000    -10.356000000000000
H       6.254000000000000      3.527000000000000    -10.531000000000001
H       6.316000000000000      5.241000000000000    -10.757000000000000
56

O       7.339000000000000      3.424000000000000      1.025000000000000
C       8.260000000000000      2.560000000000000      1.713000000000000
C       7.562000000000000      1.184000000000000      1.864000000000000
O       8.510000000000000      0.151000000000000      1.313000000000000
C       8.265000000000001     -1.206000000000000      1.918000000000000
C       8.862000000000000     -2.398000000000000      1.079000000000000
O       9.718999999999999     -1.864000000000000      0.056000000000000
C      10.821000000000000     -2.784000000000000     -0.255000000000000
C      10.581000000000000     -3.585000000000000     -1.566000000000000
O      10.494999999999999     -2.684000000000000     -2.666000000000000
C      11.715999999999999     -2.419000000000000     -3.282000000000000
C      11.384000000000000     -1.659000000000000     -4.620000000000000
O      12.621000000000000     -1.151000000000000     -5.191000000000000
C      13.089000000000000      0.024000000000000     -4.540000000000000
C      12.551000000000000      1.369000000000000     -5.237000000000000
O      13.504000000000000      2.427000000000000     -5.046000000000000
C      13.327000000000000      3.298000000000000     -3.894000000000000
C      12.082000000000001      4.186000000000000     -4.042000000000000
O      12.102000000000000      5.013000000000000     -2.850000000000000
C      10.807000000000000      5.574000000000000     -2.505000000000000
C      10.712999999999999      5.880000000000000     -0.973000000000000
O       9.345000000000001      6.207000000000000     -0.618000000000000
C       8.632999999999999      5.467000000000000      0.477000000000000
C       8.022000000000000      4.106000000000000     -0.036000000000000
H       9.186999999999999      2.429000000000000      1.140000000000000
H       8.439000000000000      3.056000000000000      2.675000000000000
H       6.613000000000000      1.125000000000000      1.318000000000000
H       7.395000000000000      1.006000000000000      2.934000000000000
H       7.189000000000000     -1.419000000000000      1.897000000000000
H       8.689000000000000     -1.207000000000000      2.930000000000000
H       9.441000000000001     -2.992000000000000      1.798000000000000
H       8.129000000000000     -3.045000000000000      0.581000000000000
H      11.768000000000001     -2.235000000000000     -0.323000000000000
H      10.965999999999999     -3.424000000000000      0.624000000000000
H       9.643000000000001     -4.122000000000000     -1.384000000000000
H      11.256000000000000     -4.436000000000000     -1.722000000000000
H      12.380000000000001     -1.847000000000000     -2.622000000000000
H      12.221000000000000     -3.329000000000000     -3.629000000000000
H      10.616000000000000     -0.894000000000000     -4.451000000000000
H      10.884000000000000     -2.437000000000000     -5.210000000000000
H      14.182000000000000     -0.006000000000000     -4.448000000000000
H      12.773000000000000      0.023000000000000     -3.489000000000000
H      12.417999999999999      1.273000000000000     -6.322000000000000
H      11.537000000000001      1.566000000000000     -4.869000000000000
H      14.163000000000000      3.941000000000000     -3.591000000000000
H      13.029999999999999      2.688000000000000     -3.032000000000000
H      11.170000000000000      3.577000000000000     -4.027000000000000
H      12.236000000000001      4.777000000000000     -4.953000000000000
H      10.582000000000001      6.465000000000000     -3.104000000000000
H       9.983000000000001      4.891000000000000     -2.750000000000000
H      11.077999999999999      5.061000000000000     -0.342000000000000
H      11.374000000000001      6.732000000000000     -0.771000000000000
H       7.883000000000000      6.059000000000000      1.015000000000000
H       9.395000000000000      5.190000000000000      1.215000000000000
H       8.740000000000000      3.398000000000000     -0.471000000000000
H       7.355000000000000      4.313000000000000     -0.882000000000000
56

O       7.912000000000000     -1.233000000000000     -0.067000000000000
C       8.199000000000000     -2.296000000000000     -1.027000000000000
C       6.870000000000000     -2.804000000000000     -1.506000000000000
O       7.052000000000000     -3.682000000000000     -2.607000000000000
C       5.795000000000000     -4.207000000000000     -3.149000000000000
C       6.087000000000000     -5.076000000000000     -4.455000000000000
O       6.317000000000000     -4.223000000000000     -5.607000000000000
C       5.126000000000000     -4.065000000000000     -6.487000000000000
C       5.496000000000000     -3.000000000000000     -7.530000000000000
O       4.631000000000000     -1.888000000000000     -7.395000000000000
C       4.765000000000000     -0.828000000000000     -8.414000000000000
C       5.986000000000000      0.110000000000000     -8.176000000000000
O       5.564000000000000      0.958000000000000     -7.080000000000000
C       6.578000000000000      1.956000000000000     -6.845000000000000
C       5.827000000000000      3.095000000000000     -6.099000000000000
O       6.874000000000000      3.990000000000000     -5.528000000000000
C       7.175000000000000      3.786000000000000     -4.161000000000000
C       8.339000000000000      4.607000000000000     -3.719000000000000
O       9.083000000000000      3.860000000000000     -2.663000000000000
C       8.518000000000001      3.817000000000000     -1.382000000000000
C       9.400000000000000      2.876000000000000     -0.424000000000000
O       8.554000000000000      1.851000000000000      0.049000000000000
C       9.018000000000001      0.760000000000000      0.878000000000000
C       9.180999999999999     -0.546000000000000      0.123000000000000
H       8.792000000000000     -1.815000000000000     -1.815000000000000
H       8.731000000000000     -3.097000000000000     -0.499000000000000
H       6.198000000000000     -2.001000000000000     -1.833000000000000
H       6.360000000000000     -3.370000000000000     -0.716000000000000
H       5.122000000000000     -3.399000000000000     -3.462000000000000
H       5.427000000000000     -4.974000000000000     -2.456000000000000
H       6.941000000000000     -5.747000000000000     -4.301000000000000
H       5.170000000000000     -5.665000000000000     -4.584000000000000
H       4.843000000000000     -4.947000000000000     -7.074000000000000
H       4.339000000000000     -3.649000000000000     -5.846000000000000
H       5.417000000000000     -3.488000000000000     -8.510000000000000
H       6.547000000000000     -2.729000000000000     -7.373000000000000
H       4.862000000000000     -1.307000000000000     -9.396000000000001
H       3.763000000000000     -0.384000000000000     -8.464000000000000
H       6.183000000000000      0.698000000000000     -9.080000000000000
H       6.915000000000000     -0.434000000000000     -7.966000000000000
H       6.949000000000000      2.392000000000000     -7.781000000000000
H       7.374000000000000      1.538000000000000     -6.216000000000000
H       5.111000000000000      3.586000000000000     -6.770000000000000
H       5.200000000000000      2.708000000000000     -5.286000000000000
H       7.456000000000000      2.727000000000000     -4.198000000000000
H       6.340000000000000      3.858000000000000     -3.453000000000000
H       7.956000000000000      5.550000000000000     -3.310000000000000
H       8.970000000000001      4.848000000000000     -4.584000000000000
H       8.497000000000000      4.847000000000000     -1.004000000000000
H       7.459000000000000      3.537000000000000     -1.443000000000000
H      10.292000000000000      2.431000000000000     -0.882000000000000
H       9.708000000000000      3.418000000000000      0.479000000000000
H       8.227000000000000      0.643000000000000      1.628000000000000
H       9.935000000000000      1.127000000000000      1.355000000000000
H       9.968000000000000     -1.165000000000000      0.571000000000000
H       9.499000000000001     -0.107000000000000     -0.831000000000000
56

O      -0.446000000000000      4.467000000000000     -3.240000000000000
C      -0.142000000000000      4.681000000000000     -1.846000000000000
C       0.995000000000000      3.677000000000000     -1.447000000000000
O       1.112000000000000      3.446000000000000     -0.034000000000000
C       2.441000000000000      3.053000000000000      0.500000000000000
C       2.169000000000000      2.250000000000000      1.768000000000000
O       1.578000000000000      0.987000000000000      1.374000000000000
C       1.431000000000000     -0.031000000000000      2.373000000000000
C       0.048000000000000      0.013000000000000      3.008000000000000
O      -0.963000000000000     -0.593000000000000      2.323000000000000
C      -2.314000000000000     -0.434000000000000      2.690000000000000
C      -3.090000000000000     -1.580000000000000      2.009000000000000
O      -4.515000000000000     -1.571000000000000      2.331000000000000
C      -5.379000000000000     -0.572000000000000      1.650000000000000
C      -5.694000000000000     -1.110000000000000      0.225000000000000
O      -6.513000000000000     -0.151000000000000     -0.557000000000000
C      -6.798000000000000     -0.418000000000000     -1.999000000000000
C      -7.435000000000000      0.772000000000000     -2.739000000000000
O      -6.449000000000000      1.774000000000000     -3.074000000000000
C      -5.472000000000000      1.465000000000000     -4.119000000000000
C      -4.591000000000000      2.801000000000000     -4.410000000000000
O      -3.227000000000000      2.492000000000000     -4.710000000000000
C      -2.305000000000000      3.660000000000000     -4.596000000000000
C      -1.225000000000000      3.268000000000000     -3.588000000000000
H       0.228000000000000      5.684000000000000     -1.600000000000000
H      -1.022000000000000      4.374000000000000     -1.267000000000000
H       1.968000000000000      3.969000000000000     -1.862000000000000
H       0.902000000000000      2.714000000000000     -1.964000000000000
H       2.955000000000000      3.970000000000000      0.813000000000000
H       3.034000000000000      2.448000000000000     -0.197000000000000
H       3.072000000000000      2.099000000000000      2.372000000000000
H       1.423000000000000      2.817000000000000      2.337000000000000
H       1.684000000000000     -0.984000000000000      1.892000000000000
H       2.214000000000000      0.131000000000000      3.125000000000000
H      -0.242000000000000      1.057000000000000      3.175000000000000
H       0.087000000000000     -0.483000000000000      3.986000000000000
H      -2.397000000000000     -0.481000000000000      3.783000000000000
H      -2.744000000000000      0.535000000000000      2.409000000000000
H      -2.612000000000000     -2.520000000000000      2.309000000000000
H      -2.921000000000000     -1.648000000000000      0.928000000000000
H      -5.038000000000000      0.466000000000000      1.549000000000000
H      -6.306000000000000     -0.669000000000000      2.228000000000000
H      -4.807000000000000     -1.433000000000000     -0.333000000000000
H      -6.312000000000000     -2.009000000000000      0.344000000000000
H      -7.451000000000000     -1.296000000000000     -2.073000000000000
H      -5.862000000000000     -0.730000000000000     -2.478000000000000
H      -8.154999999999999      1.129000000000000     -1.992000000000000
H      -7.876000000000000      0.442000000000000     -3.688000000000000
H      -4.783000000000000      0.665000000000000     -3.818000000000000
H      -5.978000000000000      1.128000000000000     -5.031000000000000
H      -5.082000000000000      3.460000000000000     -5.136000000000000
H      -4.578000000000000      3.363000000000000     -3.468000000000000
H      -2.830000000000000      4.515000000000000     -4.152000000000000
H      -1.840000000000000      3.917000000000000     -5.556000000000000
H      -0.595000000000000      2.459000000000000     -3.977000000000000
H      -1.795000000000000      3.053000000000000     -2.676000000000000
56

O      -6.936000000000000      6.622000000000000      7.158000000000000
C      -5.724000000000000      5.919000000000000      7.088000000000000
C      -6.118000000000000      4.448000000000000      6.786000000000000
O      -4.934000000000000      3.577000000000000      6.467000000000000
C      -4.428000000000000      2.615000000000000      7.415000000000000
C      -5.338000000000000      1.345000000000000      7.329000000000000
O      -5.080000000000000      0.624000000000000      6.092000000000000
C      -5.799000000000000      1.008000000000000      4.890000000000000
C      -7.102000000000000      0.168000000000000      4.793000000000000
O      -7.755000000000000      0.161000000000000      3.515000000000000
C      -8.913000000000000     -0.604000000000000      3.343000000000000
C      -9.638999999999999     -0.151000000000000      2.023000000000000
O     -10.132999999999999      1.241000000000000      2.269000000000000
C     -11.118000000000000      1.819000000000000      1.364000000000000
C     -10.475000000000000      2.736000000000000      0.239000000000000
O      -9.842000000000001      3.790000000000000      0.847000000000000
C     -10.747999999999999      4.846000000000000      1.208000000000000
C      -9.977000000000000      6.139000000000000      1.289000000000000
O     -10.833000000000000      7.113000000000000      1.891000000000000
C     -10.664999999999999      7.214000000000000      3.276000000000000
C      -9.569000000000001      8.285000000000000      3.664000000000000
O      -9.500000000000000      8.347000000000000      5.094000000000000
C      -8.879000000000000      7.224000000000000      5.735000000000000
C      -7.346000000000000      7.499000000000000      6.016000000000000
H      -5.019000000000000      6.367000000000000      6.376000000000000
H      -5.282000000000000      5.931000000000000      8.092000000000001
H      -6.840000000000000      4.455000000000000      5.961000000000000
H      -6.690000000000000      4.002000000000000      7.609000000000000
H      -4.275000000000000      3.039000000000000      8.414999999999999
H      -3.418000000000000      2.313000000000000      7.112000000000000
H      -5.213000000000000      0.766000000000000      8.253000000000000
H      -6.351000000000000      1.751000000000000      7.436000000000000
H      -6.107000000000000      2.056000000000000      4.991000000000000
H      -5.182000000000000      0.798000000000000      4.008000000000000
H      -7.789000000000000      0.505000000000000      5.578000000000000
H      -6.808000000000000     -0.859000000000000      5.042000000000000
H      -8.637000000000000     -1.665000000000000      3.349000000000000
H      -9.635000000000000     -0.413000000000000      4.147000000000000
H     -10.532000000000000     -0.785000000000000      1.969000000000000
H      -9.044000000000000     -0.306000000000000      1.115000000000000
H     -11.785000000000000      2.396000000000000      2.016000000000000
H     -11.731999999999999      0.989000000000000      0.996000000000000
H      -9.660000000000000      2.192000000000000     -0.254000000000000
H     -11.044000000000000      3.038000000000000     -0.649000000000000
H     -11.148000000000000      4.717000000000000      2.221000000000000
H     -11.561999999999999      4.881000000000000      0.473000000000000
H      -9.763000000000000      6.414000000000000      0.249000000000000
H      -8.973000000000001      6.043000000000000      1.720000000000000
H     -11.599000000000000      7.465000000000000      3.793000000000000
H     -10.407999999999999      6.217000000000000      3.656000000000000
H      -8.679000000000000      7.830000000000000      3.213000000000000
H      -9.723000000000001      9.249000000000001      3.163000000000000
H      -8.980000000000000      6.302000000000000      5.150000000000000
H      -9.361000000000001      7.109000000000000      6.714000000000000
H      -7.044000000000000      8.545999999999999      6.145000000000000
H      -6.898000000000000      7.060000000000000      5.116000000000000
56

O     -14.148999999999999      1.877000000000000      4.191000000000000
C     -13.580000000000000      2.203000000000000      5.502000000000000
C     -12.102000000000000      2.604000000000000      5.231000000000000
O     -11.263999999999999      1.470000000000000      5.480000000000000
C      -9.912000000000001      1.661000000000000      5.163000000000000
C      -9.079000000000001      0.358000000000000      4.895000000000000
O      -9.425000000000001     -0.229000000000000      3.654000000000000
C      -8.715999999999999     -1.398000000000000      3.191000000000000
C      -9.167000000000000     -1.791000000000000      1.769000000000000
O      -8.888999999999999     -0.637000000000000      0.916000000000000
C      -7.999000000000000     -0.946000000000000     -0.159000000000000
C      -8.733000000000001     -0.689000000000000     -1.447000000000000
O      -9.157999999999999      0.750000000000000     -1.485000000000000
C      -9.343000000000000      1.229000000000000     -2.813000000000000
C      -9.869000000000000      2.614000000000000     -2.873000000000000
O     -11.298999999999999      2.671000000000000     -3.199000000000000
C     -11.930999999999999      3.860000000000000     -2.659000000000000
C     -13.440000000000000      3.894000000000000     -2.961000000000000
O     -14.321999999999999      3.140000000000000     -2.123000000000000
C     -14.346000000000000      3.628000000000000     -0.754000000000000
C     -15.686000000000000      3.276000000000000     -0.054000000000000
O     -15.602000000000000      3.630000000000000      1.373000000000000
C     -15.363000000000000      2.378000000000000      2.182000000000000
C     -15.231000000000000      2.718000000000000      3.671000000000000
H     -14.124000000000001      2.991000000000000      6.036000000000000
H     -13.625000000000000      1.333000000000000      6.169000000000000
H     -11.940000000000000      3.317000000000000      6.049000000000000
H     -12.041000000000000      3.001000000000000      4.211000000000000
H      -9.372000000000000      2.274000000000000      5.895000000000000
H      -9.881000000000000      2.217000000000000      4.218000000000000
H      -8.019000000000000      0.598000000000000      4.750000000000000
H      -9.140000000000001     -0.409000000000000      5.677000000000000
H      -7.625000000000000     -1.283000000000000      3.170000000000000
H      -8.955000000000000     -2.200000000000000      3.900000000000000
H     -10.244000000000000     -1.985000000000000      1.688000000000000
H      -8.554000000000000     -2.657000000000000      1.493000000000000
H      -7.125000000000000     -0.289000000000000     -0.071000000000000
H      -7.714000000000000     -2.005000000000000     -0.145000000000000
H      -9.592000000000001     -1.370000000000000     -1.484000000000000
H      -7.976000000000000     -0.887000000000000     -2.215000000000000
H     -10.073000000000000      0.571000000000000     -3.299000000000000
H      -8.416000000000000      1.263000000000000     -3.399000000000000
H      -9.698000000000000      3.011000000000000     -1.865000000000000
H      -9.221000000000000      3.208000000000000     -3.529000000000000
H     -11.481999999999999      4.755000000000000     -3.108000000000000
H     -11.691000000000001      3.990000000000000     -1.596000000000000
H     -13.535000000000000      3.658000000000000     -4.028000000000000
H     -13.815000000000000      4.918000000000000     -2.841000000000000
H     -13.515000000000001      3.125000000000000     -0.243000000000000
H     -14.065000000000000      4.685000000000000     -0.681000000000000
H     -16.495999999999999      3.686000000000000     -0.669000000000000
H     -15.771000000000001      2.182000000000000     -0.052000000000000
H     -14.564000000000000      1.765000000000000      1.749000000000000
H     -16.273000000000000      1.771000000000000      2.091000000000000
H     -16.120999999999999      2.723000000000000      4.313000000000000
H     -14.862000000000000      3.750000000000000      3.642000000000000
56

O      -7.919000000000000     -1.339000000000000      1.269000000000000
C      -7.970000000000000     -2.059000000000000      0.002000000000000
C      -6.996000000000000     -1.537000000000000     -1.088000000000000
O      -7.106000000000000     -0.082000000000000     -1.296000000000000
C      -8.199000000000000      0.429000000000000     -2.077000000000000
C      -8.085000000000001      2.035000000000000     -2.206000000000000
O      -9.416000000000000      2.597000000000000     -2.206000000000000
C      -9.865000000000000      2.905000000000000     -0.867000000000000
C     -11.132000000000000      3.887000000000000     -0.830000000000000
O     -11.504000000000000      4.139000000000000      0.569000000000000
C     -12.909000000000001      4.419000000000000      0.774000000000000
C     -13.494999999999999      3.406000000000000      1.825000000000000
O     -12.760999999999999      3.408000000000000      3.111000000000000
C     -13.554000000000000      3.224000000000000      4.340000000000000
C     -13.579000000000001      1.733000000000000      4.852000000000000
O     -12.259000000000000      1.301000000000000      5.260000000000000
C     -12.345000000000001      0.337000000000000      6.314000000000000
C     -10.879000000000000     -0.223000000000000      6.533000000000000
O     -10.506000000000000     -1.030000000000000      5.455000000000000
C      -9.138000000000000     -1.569000000000000      5.684000000000000
C      -8.807000000000000     -2.270000000000000      4.283000000000000
O      -7.408000000000000     -2.634000000000000      4.191000000000000
C      -6.812000000000000     -2.838000000000000      2.833000000000000
C      -6.735000000000000     -1.515000000000000      2.071000000000000
H      -7.768000000000000     -3.128000000000000      0.142000000000000
H      -8.984000000000000     -1.970000000000000     -0.407000000000000
H      -7.020000000000000     -2.080000000000000     -2.040000000000000
H      -6.011000000000000     -1.598000000000000     -0.608000000000000
H      -9.156000000000001      0.135000000000000     -1.629000000000000
H      -8.095000000000001      0.011000000000000     -3.086000000000000
H      -7.547000000000000      2.440000000000000     -1.340000000000000
H      -7.678000000000000      2.176000000000000     -3.215000000000000
H      -9.893000000000001      1.995000000000000     -0.255000000000000
H      -9.064000000000000      3.439000000000000     -0.342000000000000
H     -11.898000000000000      3.469000000000000     -1.495000000000000
H     -10.797000000000001      4.834000000000000     -1.270000000000000
H     -13.032999999999999      5.483000000000000      1.013000000000000
H     -13.380000000000001      4.449000000000000     -0.216000000000000
H     -13.507000000000000      2.373000000000000      1.457000000000000
H     -14.526000000000000      3.697000000000000      2.061000000000000
H     -14.581000000000000      3.558000000000000      4.148000000000000
H     -13.115000000000000      3.864000000000000      5.115000000000000
H     -14.272000000000000      1.765000000000000      5.701000000000000
H     -14.039999999999999      1.099000000000000      4.085000000000000
H     -13.025000000000000     -0.448000000000000      5.961000000000000
H     -12.811000000000000      0.866000000000000      7.155000000000000
H     -10.784000000000001     -0.739000000000000      7.496000000000000
H     -10.137000000000000      0.580000000000000      6.613000000000000
H      -8.382000000000000     -0.798000000000000      5.879000000000000
H      -9.058999999999999     -2.299000000000000      6.499000000000000
H      -9.442000000000000     -3.162000000000000      4.221000000000000
H      -9.069000000000001     -1.581000000000000      3.470000000000000
H      -7.332000000000000     -3.552000000000000      2.183000000000000
H      -5.802000000000000     -3.221000000000000      3.024000000000000
H      -5.775000000000000     -1.337000000000000      1.570000000000000
H      -6.670000000000000     -0.688000000000000      2.789000000000000
56

O     -10.115000000000000      2.156000000000000      0.494000000000000
C      -9.324999999999999      3.317000000000000      0.897000000000000
C      -8.862000000000000      3.115000000000000      2.357000000000000
O     -10.031000000000001      2.761000000000000      3.191000000000000
C      -9.699000000000000      2.867000000000000      4.568000000000000
C      -9.260999999999999      1.518000000000000      5.217000000000000
O     -10.292000000000000      1.004000000000000      6.016000000000000
C      -9.906000000000001     -0.326000000000000      6.619000000000000
C     -10.996000000000000     -1.399000000000000      6.517000000000000
O     -12.256000000000000     -0.899000000000000      6.884000000000000
C     -13.327999999999999     -1.931000000000000      6.958000000000000
C     -13.897000000000000     -2.159000000000000      5.529000000000000
O     -15.044000000000000     -1.367000000000000      5.335000000000000
C     -15.964000000000000     -1.758000000000000      4.337000000000000
C     -15.339000000000000     -1.129000000000000      3.100000000000000
O     -16.295999999999999     -1.160000000000000      2.018000000000000
C     -16.068999999999999     -0.315000000000000      0.902000000000000
C     -14.814000000000000     -0.690000000000000      0.144000000000000
O     -14.678000000000001      0.260000000000000     -0.882000000000000
C     -14.006000000000000     -0.113000000000000     -2.113000000000000
C     -12.435000000000000      0.075000000000000     -2.001000000000000
O     -12.151000000000000      1.476000000000000     -1.712000000000000
C     -10.773000000000000      1.938000000000000     -1.845000000000000
C      -9.814000000000000      1.505000000000000     -0.753000000000000
H      -8.449999999999999      3.591000000000000      0.294000000000000
H     -10.026000000000000      4.160000000000000      0.864000000000000
H      -8.335000000000001      4.006000000000000      2.719000000000000
H      -8.193000000000000      2.249000000000000      2.449000000000000
H     -10.635999999999999      3.191000000000000      5.036000000000000
H      -9.051000000000000      3.734000000000000      4.748000000000000
H      -9.101000000000001      0.844000000000000      4.366000000000000
H      -8.318000000000000      1.659000000000000      5.759000000000000
H      -8.992000000000001     -0.805000000000000      6.247000000000000
H      -9.813000000000001     -0.024000000000000      7.670000000000000
H     -10.814000000000000     -2.226000000000000      7.215000000000000
H     -10.911000000000000     -1.894000000000000      5.541000000000000
H     -12.837999999999999     -2.853000000000000      7.295000000000000
H     -14.108000000000001     -1.709000000000000      7.697000000000000
H     -14.151000000000000     -3.224000000000000      5.453000000000000
H     -13.132000000000000     -1.838000000000000      4.811000000000000
H     -16.923999999999999     -1.242000000000000      4.462000000000000
H     -16.045999999999999     -2.851000000000000      4.287000000000000
H     -15.125999999999999     -0.076000000000000      3.321000000000000
H     -14.390000000000001     -1.603000000000000      2.822000000000000
H     -16.030999999999999      0.739000000000000      1.204000000000000
H     -16.838999999999999     -0.435000000000000      0.130000000000000
H     -14.833000000000000     -1.713000000000000     -0.251000000000000
H     -13.962999999999999     -0.742000000000000      0.834000000000000
H     -14.271000000000001     -1.099000000000000     -2.514000000000000
H     -14.455000000000000      0.566000000000000     -2.848000000000000
H     -11.952999999999999     -0.571000000000000     -1.257000000000000
H     -12.026000000000000     -0.103000000000000     -3.003000000000000
H     -10.722000000000000      3.016000000000000     -2.042000000000000
H     -10.417000000000000      1.558000000000000     -2.811000000000000
H      -8.759000000000000      1.703000000000000     -0.979000000000000
H      -9.788000000000000      0.434000000000000     -0.518000000000000
56

O      -8.648999999999999      3.088000000000000      3.638000000000000
C      -7.623000000000000      2.263000000000000      4.273000000000000
C      -8.122999999999999      0.810000000000000      4.714000000000000
O      -8.460000000000001      0.155000000000000      3.397000000000000
C      -8.236000000000001     -1.282000000000000      3.478000000000000
C      -9.538000000000000     -2.116000000000000      3.107000000000000
O      -9.441000000000001     -2.497000000000000      1.722000000000000
C     -10.696000000000000     -2.749000000000000      1.080000000000000
C     -10.832000000000001     -1.844000000000000     -0.183000000000000
O     -12.090000000000000     -2.056000000000000     -0.953000000000000
C     -12.414999999999999     -0.907000000000000     -1.766000000000000
C     -13.891000000000000     -0.806000000000000     -2.311000000000000
O     -14.789999999999999     -0.367000000000000     -1.238000000000000
C     -15.573000000000000      0.779000000000000     -1.469000000000000
C     -14.757999999999999      2.136000000000000     -1.508000000000000
O     -14.377000000000001      2.500000000000000     -0.165000000000000
C     -15.241000000000000      3.344000000000000      0.426000000000000
C     -14.779000000000000      3.627000000000000      1.901000000000000
O     -13.637000000000000      4.577000000000000      1.948000000000000
C     -13.343000000000000      5.185000000000000      3.242000000000000
C     -11.962999999999999      5.998000000000000      3.201000000000000
O     -10.839000000000000      5.161000000000000      3.580000000000000
C      -9.695000000000000      5.103000000000000      2.654000000000000
C      -8.396000000000001      4.505000000000000      3.393000000000000
H      -6.747000000000000      2.112000000000000      3.630000000000000
H      -7.231000000000000      2.683000000000000      5.207000000000000
H      -9.004000000000000      0.893000000000000      5.363000000000000
H      -7.362000000000000      0.238000000000000      5.259000000000000
H      -7.894000000000000     -1.602000000000000      4.470000000000000
H      -7.483000000000000     -1.671000000000000      2.781000000000000
H      -9.521000000000001     -3.009000000000000      3.744000000000000
H     -10.449999999999999     -1.538000000000000      3.304000000000000
H     -10.746000000000000     -3.784000000000000      0.719000000000000
H     -11.523999999999999     -2.471000000000000      1.744000000000000
H      -9.936000000000000     -2.082000000000000     -0.771000000000000
H     -10.897000000000000     -0.809000000000000      0.176000000000000
H     -12.159000000000001      0.049000000000000     -1.292000000000000
H     -11.718000000000000     -0.928000000000000     -2.612000000000000
H     -14.182000000000000     -1.771000000000000     -2.744000000000000
H     -13.869000000000000     -0.033000000000000     -3.089000000000000
H     -16.372000000000000      0.786000000000000     -0.716000000000000
H     -15.941000000000001      0.591000000000000     -2.485000000000000
H     -13.840000000000000      1.950000000000000     -2.078000000000000
H     -15.331000000000000      2.906000000000000     -2.040000000000000
H     -16.274999999999999      2.981000000000000      0.373000000000000
H     -15.227000000000000      4.315000000000000     -0.083000000000000
H     -14.515000000000001      2.685000000000000      2.397000000000000
H     -15.692000000000000      4.013000000000000      2.372000000000000
H     -14.106999999999999      5.956000000000000      3.399000000000000
H     -13.238000000000000      4.424000000000000      4.025000000000000
H     -11.801000000000000      6.588000000000000      2.291000000000000
H     -11.984999999999999      6.725000000000000      4.023000000000000
H      -9.385999999999999      6.092000000000000      2.293000000000000
H      -9.820000000000000      4.494000000000000      1.750000000000000
H      -8.182000000000000      5.026000000000000      4.335000000000000
H      -7.536000000000000      4.682000000000000      2.736000000000000
56

O      -6.584000000000000      9.196000000000000      5.724000000000000
C      -6.209000000000000      8.010000000000000      5.023000000000000
C      -6.964000000000000      6.805000000000000      5.692000000000000
O      -6.992000000000000      5.717000000000000      4.700000000000000
C      -7.729000000000000      4.554000000000000      5.149000000000000
C      -7.793000000000000      3.457000000000000      4.060000000000000
O      -8.262000000000000      3.876000000000000      2.801000000000000
C      -8.736000000000001      2.840000000000000      1.861000000000000
C      -8.532000000000000      3.374000000000000      0.430000000000000
O      -9.478999999999999      4.382000000000000      0.229000000000000
C     -10.744000000000000      3.873000000000000     -0.223000000000000
C     -11.452999999999999      4.987000000000000     -0.948000000000000
O     -12.218999999999999      5.727000000000000      0.057000000000000
C     -12.097000000000000      7.197000000000000     -0.034000000000000
C     -12.795000000000000      7.869000000000000      1.171000000000000
O     -12.308000000000000      9.208000000000000      1.233000000000000
C     -12.119999999999999      9.820000000000000      2.477000000000000
C     -11.321999999999999     11.170999999999999      2.352000000000000
O      -9.907999999999999     10.811000000000000      2.144000000000000
C      -9.032999999999999     11.952999999999999      2.117000000000000
C      -8.692000000000000     12.250000000000000      3.521000000000000
O      -8.135999999999999     11.164000000000000      4.260000000000000
C      -6.740000000000000     10.900000000000000      3.979000000000000
C      -6.077000000000000     10.454000000000001      5.234000000000000
H      -6.570000000000000      8.070000000000000      3.988000000000000
H      -5.127000000000000      7.831000000000000      4.996000000000000
H      -7.917000000000000      7.079000000000000      6.162000000000000
H      -6.391000000000000      6.382000000000000      6.527000000000000
H      -8.788000000000000      4.815000000000000      5.268000000000000
H      -7.327000000000000      4.123000000000000      6.075000000000000
H      -6.776000000000000      3.047000000000000      4.025000000000000
H      -8.419000000000000      2.689000000000000      4.530000000000000
H      -8.038000000000000      1.996000000000000      1.923000000000000
H      -9.801000000000000      2.619000000000000      2.007000000000000
H      -8.820000000000000      2.459000000000000     -0.102000000000000
H      -7.526000000000000      3.757000000000000      0.221000000000000
H     -10.579000000000001      3.088000000000000     -0.971000000000000
H     -11.311999999999999      3.455000000000000      0.618000000000000
H     -12.066000000000001      4.417000000000000     -1.657000000000000
H     -10.740000000000000      5.619000000000000     -1.492000000000000
H     -12.393000000000001      7.688000000000000     -0.969000000000000
H     -11.052000000000000      7.453000000000000      0.179000000000000
H     -13.884000000000000      7.840000000000000      1.048000000000000
H     -12.452000000000000      7.291000000000000      2.037000000000000
H     -11.651999999999999      9.089000000000000      3.148000000000000
H     -13.096000000000000     10.170000000000000      2.836000000000000
H     -11.404999999999999     11.737000000000000      3.289000000000000
H     -11.705000000000000     11.759000000000000      1.509000000000000
H      -8.067000000000000     11.682000000000000      1.673000000000000
H      -9.436999999999999     12.773999999999999      1.513000000000000
H      -7.952000000000000     13.060000000000000      3.552000000000000
H      -9.582000000000001     12.641999999999999      4.027000000000000
H      -6.253000000000000     11.852000000000000      3.734000000000000
H      -6.733000000000000     10.255000000000001      3.092000000000000
H      -6.365000000000000     11.238000000000000      5.945000000000000
H      -4.985000000000000     10.561000000000000      5.222000000000000
56

O      -6.382000000000000      7.525000000000000      6.345000000000000
C      -7.605000000000000      6.951000000000000      5.928000000000000
C      -7.375000000000000      5.550000000000000      5.311000000000000
O      -7.134000000000000      5.663000000000000      3.825000000000000
C      -8.010999999999999      4.965000000000000      2.862000000000000
C      -7.044000000000000      4.477000000000000      1.733000000000000
O      -7.001000000000000      5.522000000000000      0.657000000000000
C      -6.985000000000000      4.869000000000000     -0.599000000000000
C      -6.285000000000000      5.590000000000000     -1.738000000000000
O      -6.850000000000000      6.894000000000000     -1.892000000000000
C      -7.231000000000000      7.305000000000000     -3.250000000000000
C      -8.278000000000000      8.377000000000001     -3.199000000000000
O      -7.882000000000000      9.484999999999999     -2.357000000000000
C      -8.952999999999999     10.260000000000000     -1.798000000000000
C      -8.403000000000000     11.571000000000000     -1.145000000000000
O      -8.468000000000000     11.537000000000001      0.306000000000000
C      -7.998000000000000     12.750000000000000      0.981000000000000
C      -8.083000000000000     12.634000000000000      2.448000000000000
O      -7.083000000000000     13.420999999999999      3.177000000000000
C      -5.842000000000000     12.683000000000000      3.225000000000000
C      -5.752000000000000     11.997999999999999      4.663000000000000
O      -6.090000000000000     10.641000000000000      4.584000000000000
C      -6.092000000000000      9.942000000000000      5.791000000000000
C      -5.827000000000000      8.396000000000001      5.416000000000000
H      -8.210000000000001      6.713000000000000      6.812000000000000
H      -8.246000000000000      7.603000000000000      5.322000000000000
H      -8.163000000000000      4.809000000000000      5.495000000000000
H      -6.519000000000000      5.038000000000000      5.767000000000000
H      -8.763000000000000      5.667000000000000      2.480000000000000
H      -8.600000000000000      4.110000000000000      3.218000000000000
H      -6.019000000000000      4.348000000000000      2.102000000000000
H      -7.475000000000000      3.503000000000000      1.468000000000000
H      -6.540000000000000      3.875000000000000     -0.471000000000000
H      -7.999000000000000      4.652000000000000     -0.957000000000000
H      -6.466000000000000      5.035000000000000     -2.667000000000000
H      -5.212000000000000      5.556000000000000     -1.515000000000000
H      -6.330000000000000      7.722000000000000     -3.719000000000000
H      -7.512000000000000      6.440000000000000     -3.863000000000000
H      -9.210000000000001      7.950000000000000     -2.810000000000000
H      -8.407000000000000      8.706000000000000     -4.237000000000000
H      -9.505000000000001      9.670999999999999     -1.056000000000000
H      -9.647000000000000     10.605000000000000     -2.574000000000000
H      -7.386000000000000     11.789000000000000     -1.494000000000000
H      -9.029999999999999     12.443000000000000     -1.368000000000000
H      -8.704000000000001     13.497999999999999      0.600000000000000
H      -6.949000000000000     12.949000000000000      0.728000000000000
H      -7.956000000000000     11.609999999999999      2.820000000000000
H      -9.090000000000000     12.999000000000001      2.685000000000000
H      -5.736000000000000     11.929000000000000      2.435000000000000
H      -4.990000000000000     13.372000000000000      3.179000000000000
H      -4.701000000000000     12.074999999999999      4.969000000000000
H      -6.315000000000000     12.580000000000000      5.402000000000000
H      -7.022000000000000     10.055999999999999      6.361000000000000
H      -5.273000000000000     10.189000000000000      6.477000000000000
H      -4.736000000000000      8.310000000000000      5.491000000000000
H      -6.206000000000000      8.180000000000000      4.410000000000000
56

O      -6.432000000000000      3.753000000000000      0.048000000000000
C      -5.087000000000000      3.572000000000000     -0.413000000000000
C      -5.014000000000000      3.738000000000000     -1.977000000000000
O      -3.667000000000000      3.420000000000000     -2.451000000000000
C      -2.674000000000000      4.409000000000000     -2.283000000000000
C      -2.352000000000000      5.084000000000000     -3.639000000000000
O      -2.766000000000000      6.499000000000000     -3.651000000000000
C      -2.385000000000000      7.240000000000000     -4.801000000000000
C      -1.712000000000000      8.581000000000000     -4.290000000000000
O      -2.736000000000000      9.407000000000000     -3.739000000000000
C      -2.350000000000000     10.821000000000000     -3.535000000000000
C      -3.248000000000000     11.372999999999999     -2.354000000000000
O      -4.608000000000000     11.659000000000001     -2.793000000000000
C      -5.326000000000000     12.660000000000000     -2.041000000000000
C      -6.773000000000000     12.740000000000000     -2.540000000000000
O      -7.393000000000000     11.441000000000001     -2.327000000000000
C      -8.323000000000000     11.356000000000000     -1.233000000000000
C      -7.735000000000000     10.941000000000001      0.163000000000000
O      -8.589000000000000     10.073000000000000      0.817000000000000
C      -8.023000000000000      9.206000000000000      1.883000000000000
C      -7.256000000000000      7.990000000000000      1.258000000000000
O      -8.226000000000001      7.048000000000000      0.764000000000000
C      -7.834000000000000      5.613000000000000      1.014000000000000
C      -7.098000000000000      5.005000000000000     -0.250000000000000
H      -4.386000000000000      4.190000000000000      0.161000000000000
H      -4.807000000000000      2.517000000000000     -0.311000000000000
H      -5.298000000000000      4.761000000000000     -2.255000000000000
H      -5.669000000000000      3.026000000000000     -2.494000000000000
H      -1.739000000000000      3.950000000000000     -1.938000000000000
H      -2.933000000000000      5.201000000000000     -1.569000000000000
H      -1.258000000000000      5.066000000000000     -3.726000000000000
H      -2.918000000000000      4.537000000000000     -4.403000000000000
H      -1.737000000000000      6.682000000000000     -5.488000000000000
H      -3.327000000000000      7.531000000000000     -5.280000000000000
H      -1.247000000000000      9.111000000000001     -5.131000000000000
H      -1.026000000000000      8.286000000000000     -3.486000000000000
H      -1.282000000000000     10.898000000000000     -3.293000000000000
H      -2.512000000000000     11.393000000000001     -4.456000000000000
H      -2.789000000000000     12.298999999999999     -1.985000000000000
H      -3.234000000000000     10.670000000000000     -1.512000000000000
H      -4.851000000000000     13.631000000000000     -2.229000000000000
H      -5.318000000000000     12.426000000000000     -0.970000000000000
H      -7.363000000000000     13.558000000000000     -2.109000000000000
H      -6.739000000000000     13.055000000000000     -3.590000000000000
H      -9.125000000000000     10.622999999999999     -1.383000000000000
H      -8.691000000000001     12.359999999999999     -0.988000000000000
H      -7.692000000000000     11.859000000000000      0.761000000000000
H      -6.734000000000000     10.505000000000001      0.053000000000000
H      -7.357000000000000      9.786000000000000      2.533000000000000
H      -8.827999999999999      8.831000000000000      2.527000000000000
H      -6.621000000000000      8.371000000000000      0.449000000000000
H      -6.515000000000000      7.568000000000000      1.948000000000000
H      -8.750000000000000      5.027000000000000      1.159000000000000
H      -7.194000000000000      5.508000000000000      1.899000000000000
H      -6.518000000000000      5.860000000000000     -0.619000000000000
H      -7.798000000000000      4.720000000000000     -1.045000000000000
56

O      -4.525000000000000      9.728999999999999      0.756000000000000
C      -5.280000000000000     10.058000000000000     -0.455000000000000
C      -4.225000000000000     10.369999999999999     -1.559000000000000
O      -4.881000000000000     11.343000000000000     -2.376000000000000
C      -4.416000000000000     11.246000000000000     -3.747000000000000
C      -3.118000000000000     12.109999999999999     -3.954000000000000
O      -3.291000000000000     13.516000000000000     -3.670000000000000
C      -2.307000000000000     14.449000000000000     -4.357000000000000
C      -2.073000000000000     15.749000000000001     -3.562000000000000
O      -1.072000000000000     15.635999999999999     -2.544000000000000
C      -0.928000000000000     16.701000000000001     -1.518000000000000
C       0.346000000000000     16.405000000000001     -0.673000000000000
O      -0.134000000000000     16.661999999999999      0.656000000000000
C      -0.553000000000000     15.536000000000000      1.427000000000000
C       0.411000000000000     15.234999999999999      2.597000000000000
O      -0.317000000000000     14.276000000000000      3.414000000000000
C       0.399000000000000     13.432000000000000      4.341000000000000
C       0.804000000000000     12.026999999999999      3.675000000000000
O      -0.094000000000000     11.016000000000000      4.202000000000000
C       0.009000000000000      9.724000000000000      3.577000000000000
C      -1.252000000000000      8.865000000000000      3.601000000000000
O      -2.017000000000000      8.991000000000000      2.348000000000000
C      -3.259000000000000      8.335000000000001      2.324000000000000
C      -3.945000000000000      8.362000000000000      0.908000000000000
H      -5.954000000000000      9.273999999999999     -0.824000000000000
H      -5.751000000000000     11.028000000000000     -0.252000000000000
H      -3.977000000000000      9.371000000000000     -1.940000000000000
H      -3.310000000000000     10.762000000000000     -1.098000000000000
H      -5.145000000000000     11.513000000000000     -4.522000000000000
H      -4.241000000000000     10.202999999999999     -4.038000000000000
H      -2.352000000000000     11.702999999999999     -3.283000000000000
H      -2.813000000000000     12.038000000000000     -5.005000000000000
H      -1.366000000000000     13.965000000000000     -4.648000000000000
H      -2.774000000000000     14.831000000000000     -5.273000000000000
H      -2.967000000000000     16.105000000000000     -3.035000000000000
H      -1.822000000000000     16.591000000000001     -4.218000000000000
H      -0.771000000000000     17.693000000000001     -1.958000000000000
H      -1.784000000000000     16.847999999999999     -0.847000000000000
H       1.150000000000000     17.074000000000002     -1.005000000000000
H       0.607000000000000     15.343999999999999     -0.777000000000000
H      -0.574000000000000     14.666000000000000      0.759000000000000
H      -1.606000000000000     15.711000000000000      1.680000000000000
H       1.317000000000000     14.826000000000001      2.132000000000000
H       0.747000000000000     16.045999999999999      3.254000000000000
H      -0.168000000000000     13.196000000000000      5.250000000000000
H       1.294000000000000     13.970000000000001      4.679000000000000
H       1.835000000000000     11.710000000000001      3.875000000000000
H       0.772000000000000     12.064000000000000      2.579000000000000
H       0.442000000000000      9.815000000000000      2.573000000000000
H       0.818000000000000      9.226000000000001      4.125000000000000
H      -0.861000000000000      7.848000000000000      3.725000000000000
H      -1.872000000000000      9.109999999999999      4.472000000000000
H      -3.857000000000000      8.663000000000000      3.183000000000000
H      -3.081000000000000      7.303000000000000      2.651000000000000
H      -4.752000000000000      7.620000000000000      0.884000000000000
H      -3.242000000000000      8.050000000000001      0.126000000000000
56

O      -1.273000000000000      7.564000000000000     -4.898000000000000
C      -0.148000000000000      7.687000000000000     -5.662000000000000
C      -0.301000000000000      8.962999999999999     -6.526000000000000
O       0.900000000000000      9.084000000000000     -7.218000000000000
C       2.000000000000000      9.879000000000000     -6.647000000000000
C       1.801000000000000     11.391999999999999     -7.079000000000000
O       2.823000000000000     12.231999999999999     -6.532000000000000
C       2.767000000000000     12.706000000000000     -5.207000000000000
C       2.053000000000000     14.025000000000000     -5.313000000000000
O       2.169000000000000     14.613000000000000     -4.033000000000000
C       1.057000000000000     14.664999999999999     -3.161000000000000
C       1.515000000000000     14.353000000000000     -1.696000000000000
O       0.375000000000000     13.971000000000000     -0.899000000000000
C       0.684000000000000     13.148999999999999      0.309000000000000
C      -0.655000000000000     13.183000000000000      1.162000000000000
O      -1.642000000000000     12.336000000000000      0.668000000000000
C      -1.658000000000000     11.009000000000000      1.156000000000000
C      -2.781000000000000     10.146000000000001      0.564000000000000
O      -2.375000000000000      8.734000000000000      0.338000000000000
C      -3.361000000000000      7.819000000000000     -0.150000000000000
C      -3.665000000000000      7.998000000000000     -1.672000000000000
O      -2.531000000000000      7.881000000000000     -2.515000000000000
C      -2.341000000000000      6.516000000000000     -2.897000000000000
C      -1.338000000000000      6.381000000000000     -4.105000000000000
H       0.708000000000000      7.802000000000000     -4.985000000000000
H      -0.066000000000000      6.748000000000000     -6.223000000000000
H      -0.574000000000000      9.797000000000001     -5.868000000000000
H      -1.155000000000000      8.843000000000000     -7.205000000000000
H       2.927000000000000      9.574999999999999     -7.148000000000000
H       2.115000000000000      9.847000000000000     -5.556000000000000
H       1.873000000000000     11.526999999999999     -8.164999999999999
H       0.836000000000000     11.752000000000001     -6.703000000000000
H       2.244000000000000     12.015000000000001     -4.536000000000000
H       3.797000000000000     12.805999999999999     -4.842000000000000
H       0.997000000000000     13.912000000000001     -5.587000000000000
H       2.566000000000000     14.702000000000000     -6.007000000000000
H       0.675000000000000     15.691000000000001     -3.242000000000000
H       0.204000000000000     14.007000000000000     -3.369000000000000
H       2.153000000000000     15.180999999999999     -1.363000000000000
H       2.178000000000000     13.481000000000000     -1.752000000000000
H       1.525000000000000     13.673999999999999      0.778000000000000
H       0.968000000000000     12.114000000000001      0.085000000000000
H      -0.337000000000000     12.968000000000000      2.190000000000000
H      -1.143000000000000     14.166000000000000      1.135000000000000
H      -1.722000000000000     11.029999999999999      2.251000000000000
H      -0.689000000000000     10.571999999999999      0.888000000000000
H      -2.914000000000000     10.548999999999999     -0.447000000000000
H      -3.689000000000000     10.186000000000000      1.178000000000000
H      -3.102000000000000      6.765000000000000      0.008000000000000
H      -4.170000000000000      7.913000000000000      0.585000000000000
H      -4.525000000000000      7.427000000000000     -2.043000000000000
H      -4.043000000000000      9.019000000000000     -1.810000000000000
H      -3.335000000000000      6.161000000000000     -3.196000000000000
H      -1.907000000000000      5.976000000000000     -2.046000000000000
H      -1.640000000000000      5.514000000000000     -4.705000000000000
H      -0.350000000000000      6.267000000000000     -3.642000000000000
56

O      -2.652000000000000      6.692000000000000     -1.313000000000000
C      -3.444000000000000      5.512000000000000     -1.191000000000000
C      -3.432000000000000      4.651000000000000     -2.522000000000000
O      -2.597000000000000      3.506000000000000     -2.309000000000000
C      -1.198000000000000      3.669000000000000     -2.701000000000000
C      -1.025000000000000      3.169000000000000     -4.142000000000000
O      -2.016000000000000      3.678000000000000     -5.057000000000000
C      -1.855000000000000      3.110000000000000     -6.322000000000000
C      -1.326000000000000      4.207000000000000     -7.287000000000000
O      -2.337000000000000      4.638000000000000     -8.205000000000000
C      -1.899000000000000      4.941000000000000     -9.516000000000000
C      -1.229000000000000      6.363000000000000     -9.468999999999999
O      -2.274000000000000      7.367000000000000     -9.500000000000000
C      -1.834000000000000      8.609000000000000     -9.053000000000001
C      -2.954000000000000      9.669000000000000     -9.273000000000000
O      -3.537000000000000     10.087000000000000     -8.087000000000000
C      -2.810000000000000     11.125999999999999     -7.374000000000000
C      -3.527000000000000     11.507999999999999     -5.993000000000000
O      -3.009000000000000     10.715000000000000     -4.944000000000000
C      -3.378000000000000     11.115000000000000     -3.560000000000000
C      -2.668000000000000     10.074999999999999     -2.726000000000000
O      -3.314000000000000      8.824999999999999     -2.891000000000000
C      -4.194000000000000      8.475000000000000     -1.749000000000000
C      -3.342000000000000      7.761000000000000     -0.667000000000000
H      -3.071000000000000      4.832000000000000     -0.415000000000000
H      -4.496000000000000      5.737000000000000     -0.978000000000000
H      -3.263000000000000      5.173000000000000     -3.472000000000000
H      -4.485000000000000      4.417000000000000     -2.722000000000000
H      -0.442000000000000      3.126000000000000     -2.120000000000000
H      -0.877000000000000      4.716000000000000     -2.643000000000000
H      -0.020000000000000      3.368000000000000     -4.536000000000000
H      -1.286000000000000      2.104000000000000     -4.128000000000000
H      -1.074000000000000      2.341000000000000     -6.265000000000000
H      -2.800000000000000      2.715000000000000     -6.714000000000000
H      -0.520000000000000      3.882000000000000     -7.957000000000000
H      -1.003000000000000      5.084000000000000     -6.713000000000000
H      -1.200000000000000      4.219000000000000     -9.955000000000000
H      -2.806000000000000      5.027000000000000    -10.125999999999999
H      -0.496000000000000      6.507000000000000    -10.272000000000000
H      -0.585000000000000      6.428000000000000     -8.582000000000001
H      -0.913000000000000      8.910000000000000     -9.568000000000000
H      -1.601000000000000      8.603999999999999     -7.982000000000000
H      -2.488000000000000     10.534000000000001     -9.762000000000000
H      -3.772000000000000      9.273000000000000     -9.885999999999999
H      -2.688000000000000     12.076000000000001     -7.909000000000000
H      -1.841000000000000     10.694000000000001     -7.094000000000000
H      -4.597000000000000     11.273999999999999     -6.038000000000000
H      -3.462000000000000     12.573000000000000     -5.738000000000000
H      -3.083000000000000     12.135000000000000     -3.283000000000000
H      -4.453000000000000     10.994999999999999     -3.375000000000000
H      -1.617000000000000      9.997999999999999     -3.031000000000000
H      -2.675000000000000     10.369999999999999     -1.670000000000000
H      -5.038000000000000      7.808000000000000     -1.964000000000000
H      -4.549000000000000      9.420000000000000     -1.320000000000000
H      -4.032000000000000      7.452000000000000      0.128000000000000
H      -2.646000000000000      8.487000000000000     -0.230000000000000
56

O       1.846000000000000      3.757000000000000     -2.849000000000000
C       1.250000000000000      2.748000000000000     -3.728000000000000
C       1.000000000000000      3.295000000000000     -5.170000000000000
O       1.340000000000000      2.300000000000000     -6.148000000000000
C       2.612000000000000      2.517000000000000     -6.799000000000000
C       2.326000000000000      3.203000000000000     -8.164000000000000
O       3.541000000000000      3.752000000000000     -8.728999999999999
C       3.714000000000000      5.245000000000000     -8.723000000000001
C       3.173000000000000      5.971000000000000     -9.958000000000000
O       2.691000000000000      7.265000000000000     -9.635999999999999
C       3.686000000000000      8.257000000000000     -9.353000000000000
C       3.149000000000000      9.727000000000000     -9.271000000000001
O       2.783000000000000      9.933999999999999     -7.893000000000000
C       3.886000000000000     10.414000000000000     -6.969000000000000
C       3.376000000000000     11.532000000000000     -5.964000000000000
O       2.618000000000000     10.943000000000000     -4.926000000000000
C       3.288000000000000     10.435000000000000     -3.772000000000000
C       2.411000000000000     10.600000000000000     -2.486000000000000
O       1.258000000000000      9.686999999999999     -2.682000000000000
C       0.733000000000000      8.961000000000000     -1.543000000000000
C       1.441000000000000      7.578000000000000     -1.459000000000000
O       1.200000000000000      6.750000000000000     -2.656000000000000
C       0.310000000000000      5.648000000000000     -2.441000000000000
C       1.083000000000000      4.423000000000000     -1.884000000000000
H       1.849000000000000      1.847000000000000     -3.915000000000000
H       0.263000000000000      2.491000000000000     -3.324000000000000
H       1.505000000000000      4.253000000000000     -5.344000000000000
H      -0.059000000000000      3.563000000000000     -5.271000000000000
H       2.937000000000000      1.488000000000000     -7.000000000000000
H       3.214000000000000      3.134000000000000     -6.120000000000000
H       1.897000000000000      2.446000000000000     -8.832000000000001
H       1.569000000000000      3.973000000000000     -7.973000000000000
H       3.354000000000000      5.721000000000000     -7.802000000000000
H       4.750000000000000      5.605000000000000     -8.690000000000000
H       2.244000000000000      5.555000000000000    -10.367000000000001
H       3.949000000000000      5.951000000000000    -10.733000000000001
H       4.251000000000000      8.023000000000000     -8.442000000000000
H       4.357000000000000      8.138999999999999    -10.212000000000000
H       2.346000000000000      9.731000000000000    -10.019000000000000
H       3.873000000000000     10.442000000000000     -9.680000000000000
H       4.662000000000000     10.865000000000000     -7.599000000000000
H       4.312000000000000      9.574999999999999     -6.405000000000000
H       4.220000000000000     12.172000000000001     -5.680000000000000
H       2.738000000000000     12.212999999999999     -6.541000000000000
H       4.226000000000000     10.975000000000000     -3.588000000000000
H       3.692000000000000      9.441000000000001     -3.998000000000000
H       2.130000000000000     11.657999999999999     -2.417000000000000
H       3.041000000000000     10.321000000000000     -1.632000000000000
H       0.871000000000000      9.644000000000000     -0.696000000000000
H      -0.335000000000000      8.757999999999999     -1.692000000000000
H       2.535000000000000      7.560000000000000     -1.388000000000000
H       1.032000000000000      7.074000000000000     -0.574000000000000
H      -0.183000000000000      5.423000000000000     -3.395000000000000
H      -0.535000000000000      5.878000000000000     -1.781000000000000
H       0.383000000000000      3.717000000000000     -1.419000000000000
H       1.691000000000000      4.785000000000000     -1.046000000000000
56

O       3.945000000000000      7.070000000000000     -3.921000000000000
C       3.354000000000000      6.553000000000000     -5.124000000000000
C       3.906000000000000      7.320000000000000     -6.263000000000000
O       3.901000000000000      6.493000000000000     -7.364000000000000
C       5.141000000000000      5.705000000000000     -7.558000000000000
C       5.900000000000000      6.448000000000000     -8.662000000000001
O       7.146000000000000      5.798000000000000     -8.977000000000000
C       8.291000000000000      6.002000000000000     -8.071000000000000
C       9.390000000000001      6.633000000000000     -8.962000000000000
O      10.273999999999999      7.380000000000000     -8.096000000000000
C      11.179000000000000      6.549000000000000     -7.306000000000000
C      12.234000000000000      7.454000000000000     -6.633000000000000
O      11.765000000000001      8.124000000000001     -5.405000000000000
C      11.710000000000001      7.339000000000000     -4.192000000000000
C      11.523999999999999      8.192000000000000     -2.974000000000000
O      10.375999999999999      9.045000000000000     -3.121000000000000
C      10.182000000000000      9.903000000000000     -1.930000000000000
C       8.715000000000000     10.180000000000000     -1.816000000000000
O       7.974000000000000      8.992000000000001     -1.294000000000000
C       6.748000000000000      9.188000000000001     -0.541000000000000
C       6.197000000000000      7.746000000000000     -0.348000000000000
O       5.476000000000000      7.254000000000000     -1.515000000000000
C       4.017000000000000      7.508000000000000     -1.489000000000000
C       3.284000000000000      6.763000000000000     -2.660000000000000
H       3.419000000000000      5.462000000000000     -5.220000000000000
H       2.279000000000000      6.770000000000000     -5.139000000000000
H       4.924000000000000      7.661000000000000     -6.037000000000000
H       3.227000000000000      8.173000000000000     -6.390000000000000
H       4.868000000000000      4.711000000000000     -7.934000000000000
H       5.796000000000000      5.639000000000000     -6.680000000000000
H       5.299000000000000      6.519000000000000     -9.577999999999999
H       6.053000000000000      7.492000000000000     -8.363000000000000
H       8.076000000000001      6.751000000000000     -7.299000000000000
H       8.744000000000000      5.116000000000000     -7.609000000000000
H       8.848000000000001      7.314000000000000     -9.629000000000000
H       9.951000000000001      5.899000000000000     -9.553000000000001
H      10.608000000000001      6.091000000000000     -6.488000000000000
H      11.628000000000000      5.750000000000000     -7.908000000000000
H      12.472000000000000      8.244000000000000     -7.356000000000000
H      13.134000000000000      6.853000000000000     -6.452000000000000
H      12.529999999999999      6.628000000000000     -4.034000000000000
H      10.882000000000000      6.626000000000000     -4.291000000000000
H      11.311999999999999      7.553000000000000     -2.108000000000000
H      12.398999999999999      8.827000000000000     -2.787000000000000
H      10.813000000000001     10.779999999999999     -2.120000000000000
H      10.584000000000000      9.433999999999999     -1.023000000000000
H       8.425000000000001     10.422000000000001     -2.846000000000000
H       8.654999999999999     11.007000000000000     -1.099000000000000
H       6.921000000000000      9.644000000000000      0.441000000000000
H       5.947000000000000      9.699000000000000     -1.089000000000000
H       7.047000000000000      7.056000000000000     -0.268000000000000
H       5.600000000000000      7.782000000000000      0.571000000000000
H       3.874000000000000      8.574000000000000     -1.703000000000000
H       3.582000000000000      7.257000000000000     -0.514000000000000
H       2.244000000000000      7.111000000000000     -2.695000000000000
H       3.340000000000000      5.684000000000000     -2.471000000000000
56

O       4.423000000000000      6.641000000000000     -3.006000000000000
C       4.137000000000000      7.390000000000000     -4.241000000000000
C       5.277000000000000      8.266000000000000     -4.705000000000000
O       5.332000000000000      8.295000000000000     -6.171000000000000
C       6.358000000000000      7.422000000000000     -6.729000000000000
C       7.217000000000000      8.137000000000000     -7.845000000000000
O       8.609999999999999      8.230000000000000     -7.410000000000000
C       9.358000000000001      6.918000000000000     -7.607000000000000
C      10.749000000000001      6.844000000000000     -6.874000000000000
O      10.709000000000000      7.576000000000000     -5.629000000000000
C      11.972000000000000      7.347000000000000     -4.821000000000000
C      12.255000000000001      8.382999999999999     -3.637000000000000
O      11.811999999999999      7.746000000000000     -2.465000000000000
C      11.929000000000000      8.606000000000000     -1.277000000000000
C      11.816000000000001      7.648000000000000     -0.050000000000000
O      10.589000000000000      6.915000000000000      0.023000000000000
C      10.301000000000000      6.382000000000000      1.332000000000000
C       9.086000000000000      7.216000000000000      1.912000000000000
O       7.917000000000000      6.620000000000000      1.373000000000000
C       6.598000000000000      6.760000000000000      1.821000000000000
C       5.767000000000000      6.165000000000000      0.702000000000000
O       5.868000000000000      6.979000000000000     -0.516000000000000
C       4.689000000000000      7.741000000000000     -0.797000000000000
C       3.695000000000000      7.041000000000000     -1.809000000000000
H       3.992000000000000      6.687000000000000     -5.071000000000000
H       3.174000000000000      7.914000000000000     -4.271000000000000
H       6.224000000000000      7.938000000000000     -4.259000000000000
H       5.194000000000000      9.291000000000000     -4.323000000000000
H       5.966000000000000      6.510000000000000     -7.197000000000000
H       7.102000000000000      7.113000000000000     -5.985000000000000
H       7.069000000000000      7.524000000000000     -8.743000000000000
H       6.718000000000000      9.095000000000001     -8.035000000000000
H       8.814000000000000      6.069000000000000     -7.175000000000000
H       9.600000000000000      6.686000000000000     -8.651000000000000
H      11.558000000000000      7.139000000000000     -7.553000000000000
H      10.867000000000001      5.771000000000000     -6.676000000000000
H      11.975000000000000      6.314000000000000     -4.451000000000000
H      12.819000000000001      7.408000000000000     -5.516000000000000
H      11.730000000000000      9.327999999999999     -3.823000000000000
H      13.331000000000000      8.547000000000001     -3.501000000000000
H      11.032000000000000      9.225000000000000     -1.160000000000000
H      12.907999999999999      9.100000000000000     -1.308000000000000
H      12.605000000000000      6.886000000000000     -0.041000000000000
H      11.904000000000000      8.218000000000000      0.883000000000000
H      11.237000000000000      6.518000000000000      1.888000000000000
H      10.054000000000000      5.315000000000000      1.262000000000000
H       9.300000000000001      8.279000000000000      1.749000000000000
H       8.990000000000000      7.213000000000000      3.005000000000000
H       6.372000000000000      6.138000000000000      2.696000000000000
H       6.310000000000000      7.808000000000000      1.966000000000000
H       6.196000000000000      5.186000000000000      0.454000000000000
H       4.747000000000000      5.963000000000000      1.049000000000000
H       5.041000000000000      8.677000000000000     -1.247000000000000
H       4.152000000000000      8.054000000000000      0.106000000000000
H       2.833000000000000      7.670000000000000     -2.064000000000000
H       3.259000000000000      6.200000000000000     -1.257000000000000
56

O       2.599000000000000      7.438000000000000     -1.169000000000000
C       2.682000000000000      6.005000000000000     -1.454000000000000
C       4.172000000000000      5.525000000000000     -1.565000000000000
O       4.995000000000000      6.151000000000000     -0.691000000000000
C       6.127000000000000      5.354000000000000     -0.237000000000000
C       6.355000000000000      5.598000000000000      1.219000000000000
O       7.647000000000000      5.068000000000000      1.605000000000000
C       8.778000000000000      6.019000000000000      1.702000000000000
C       9.023000000000000      6.421000000000000      3.200000000000000
O       8.388000000000000      7.670000000000000      3.498000000000000
C       7.124000000000000      7.642000000000000      4.071000000000000
C       7.009000000000000      8.893000000000001      4.998000000000000
O       7.373000000000000     10.147000000000000      4.309000000000000
C       7.170000000000000     11.378000000000000      5.064000000000000
C       5.762000000000000     11.986000000000001      4.690000000000000
O       5.994000000000000     12.629000000000000      3.354000000000000
C       4.977000000000000     13.629000000000000      3.007000000000000
C       3.651000000000000     12.930000000000000      2.614000000000000
O       3.445000000000000     12.756000000000000      1.200000000000000
C       2.512000000000000     11.744999999999999      0.892000000000000
C       2.225000000000000     11.739000000000001     -0.633000000000000
O       2.044000000000000     10.361000000000001     -1.085000000000000
C       3.020000000000000      9.750000000000000     -1.842000000000000
C       2.631000000000000      8.307000000000000     -2.326000000000000
H       2.024000000000000      5.449000000000000     -0.775000000000000
H       2.194000000000000      5.762000000000000     -2.407000000000000
H       4.598000000000000      5.522000000000000     -2.576000000000000
H       4.039000000000000      4.464000000000000     -1.322000000000000
H       6.981000000000000      5.517000000000000     -0.905000000000000
H       5.835000000000000      4.304000000000000     -0.358000000000000
H       6.251000000000000      6.667000000000000      1.442000000000000
H       5.577000000000000      5.056000000000000      1.771000000000000
H       9.628000000000000      5.470000000000000      1.280000000000000
H       8.614000000000001      6.938000000000000      1.125000000000000
H      10.102000000000000      6.537000000000000      3.361000000000000
H       8.664000000000000      5.710000000000000      3.954000000000000
H       6.384000000000000      7.909000000000000      3.306000000000000
H       6.880000000000000      6.703000000000000      4.582000000000000
H       7.634000000000000      8.798999999999999      5.894000000000000
H       5.930000000000000      8.897000000000000      5.197000000000000
H       7.984000000000000     12.092000000000001      4.891000000000000
H       7.161000000000000     11.141999999999999      6.136000000000000
H       4.910000000000000     11.295999999999999      4.682000000000000
H       5.470000000000000     12.722000000000000      5.449000000000000
H       5.317000000000000     14.233000000000001      2.157000000000000
H       4.889000000000000     14.295999999999999      3.874000000000000
H       2.840000000000000     13.545000000000000      3.024000000000000
H       3.471000000000000     11.984999999999999      3.141000000000000
H       2.913000000000000     10.801000000000000      1.282000000000000
H       1.527000000000000     11.877000000000001      1.355000000000000
H       1.381000000000000     12.417999999999999     -0.810000000000000
H       3.103000000000000     12.170999999999999     -1.129000000000000
H       3.975000000000000      9.707000000000001     -1.303000000000000
H       3.253000000000000     10.377000000000001     -2.712000000000000
H       3.268000000000000      8.035000000000000     -3.176000000000000
H       1.629000000000000      8.292999999999999     -2.773000000000000
56

O      -1.041000000000000      8.895000000000000     -0.798000000000000
C      -1.604000000000000      8.236000000000001     -1.965000000000000
C      -0.445000000000000      7.359000000000000     -2.585000000000000
O       0.518000000000000      8.185000000000000     -3.331000000000000
C       1.744000000000000      7.501000000000000     -3.650000000000000
C       2.649000000000000      8.646000000000001     -4.158000000000000
O       3.997000000000000      8.114000000000001     -4.202000000000000
C       4.962000000000000      8.970000000000001     -4.731000000000000
C       5.521000000000000      9.900000000000000     -3.714000000000000
O       6.054000000000000     11.180000000000000     -4.305000000000000
C       7.013000000000000     11.778000000000000     -3.520000000000000
C       6.382000000000000     12.356000000000000     -2.259000000000000
O       5.316000000000000     13.185000000000000     -2.590000000000000
C       5.342000000000000     14.550000000000001     -1.925000000000000
C       4.808000000000000     14.346000000000000     -0.488000000000000
O       3.833000000000000     15.385999999999999     -0.173000000000000
C       2.498000000000000     15.018000000000001     -0.456000000000000
C       1.901000000000000     14.500000000000000      0.855000000000000
O       0.568000000000000     13.871000000000000      0.580000000000000
C      -0.052000000000000     13.196999999999999      1.747000000000000
C       0.085000000000000     11.698000000000000      1.698000000000000
O      -0.518000000000000     11.363000000000000      0.472000000000000
C      -1.901000000000000     10.980000000000000      0.431000000000000
C      -2.002000000000000      9.436999999999999      0.109000000000000
H      -2.454000000000000      7.596000000000000     -1.700000000000000
H      -2.098000000000000      8.971000000000000     -2.613000000000000
H      -0.842000000000000      6.609000000000000     -3.280000000000000
H       0.048000000000000      6.865000000000000     -1.739000000000000
H       1.600000000000000      6.685000000000000     -4.369000000000000
H       2.125000000000000      6.977000000000000     -2.765000000000000
H       2.293000000000000      8.996000000000000     -5.134000000000000
H       2.615000000000000      9.436000000000000     -3.396000000000000
H       5.773000000000000      8.350000000000000     -5.132000000000000
H       4.510000000000000      9.568000000000000     -5.532000000000000
H       6.289000000000000      9.311000000000000     -3.198000000000000
H       4.749000000000000     10.202999999999999     -2.997000000000000
H       7.742000000000000     10.997999999999999     -3.268000000000000
H       7.554000000000000     12.574000000000000     -4.045000000000000
H       7.165000000000000     12.843999999999999     -1.666000000000000
H       5.987000000000000     11.523999999999999     -1.662000000000000
H       4.792000000000000     15.224000000000000     -2.594000000000000
H       6.324000000000000     15.037000000000001     -1.959000000000000
H       4.304000000000000     13.372000000000000     -0.471000000000000
H       5.708000000000000     14.297000000000001      0.137000000000000
H       2.478000000000000     14.282999999999999     -1.270000000000000
H       2.007000000000000     15.946999999999999     -0.773000000000000
H       1.736000000000000     15.358000000000001      1.518000000000000
H       2.587000000000000     13.736000000000001      1.243000000000000
H       0.394000000000000     13.637000000000000      2.647000000000000
H      -1.137000000000000     13.358000000000001      1.749000000000000
H       1.152000000000000     11.454000000000001      1.629000000000000
H      -0.420000000000000     11.263000000000000      2.570000000000000
H      -2.367000000000000     11.359999999999999     -0.486000000000000
H      -2.498000000000000     11.358000000000001      1.270000000000000
H      -2.986000000000000      9.314000000000000     -0.360000000000000
H      -2.070000000000000      8.781000000000001      0.987000000000000
56

O      -2.252000000000000      9.521000000000001     -2.626000000000000
C      -2.540000000000000      8.743000000000000     -3.795000000000000
C      -1.660000000000000      7.460000000000000     -3.771000000000000
O      -0.262000000000000      7.853000000000000     -4.150000000000000
C       0.562000000000000      6.764000000000000     -4.604000000000000
C       1.804000000000000      7.378000000000000     -5.228000000000000
O       2.837000000000000      7.401000000000000     -4.227000000000000
C       4.132000000000000      7.762000000000000     -4.689000000000000
C       4.053000000000000      9.259000000000000     -4.687000000000000
O       5.338000000000000      9.816000000000001     -4.389000000000000
C       5.764000000000000      9.958000000000000     -2.984000000000000
C       5.252000000000000     11.430999999999999     -2.387000000000000
O       5.896000000000000     12.523999999999999     -3.097000000000000
C       5.736000000000000     13.880000000000001     -2.476000000000000
C       4.263000000000000     14.436000000000000     -2.750000000000000
O       3.248000000000000     13.678000000000001     -2.183000000000000
C       2.046000000000000     14.393000000000001     -1.708000000000000
C       1.140000000000000     14.670000000000000     -2.950000000000000
O      -0.137000000000000     15.412000000000001     -2.646000000000000
C      -1.159000000000000     14.640000000000001     -1.944000000000000
C      -1.990000000000000     13.797000000000001     -2.883000000000000
O      -2.896000000000000     13.000000000000000     -2.053000000000000
C      -2.536000000000000     11.664999999999999     -1.630000000000000
C      -3.213000000000000     10.597000000000000     -2.503000000000000
H      -3.575000000000000      8.381000000000000     -3.768000000000000
H      -2.372000000000000      9.260000000000000     -4.747000000000000
H      -2.069000000000000      6.706000000000000     -4.455000000000000
H      -1.774000000000000      7.091000000000000     -2.745000000000000
H       0.016000000000000      6.181000000000000     -5.356000000000000
H       0.786000000000000      6.095000000000000     -3.764000000000000
H       2.125000000000000      6.643000000000000     -5.977000000000000
H       1.625000000000000      8.294000000000000     -5.805000000000000
H       4.888000000000000      7.444000000000000     -3.961000000000000
H       4.341000000000000      7.292000000000000     -5.658000000000000
H       3.263000000000000      9.603999999999999     -4.008000000000000
H       3.748000000000000      9.587000000000000     -5.688000000000000
H       5.235000000000000      9.218999999999999     -2.370000000000000
H       6.856000000000000      9.856000000000000     -2.944000000000000
H       5.521000000000000     11.471000000000000     -1.324000000000000
H       4.167000000000000     11.472000000000000     -2.537000000000000
H       6.357000000000000     14.691000000000001     -2.876000000000000
H       5.931000000000000     13.728999999999999     -1.407000000000000
H       4.274000000000000     15.494000000000000     -2.460000000000000
H       3.935000000000000     14.462999999999999     -3.797000000000000
H       2.135000000000000     15.295000000000000     -1.090000000000000
H       1.507000000000000     13.651999999999999     -1.107000000000000
H       1.003000000000000     13.718999999999999     -3.480000000000000
H       1.814000000000000     15.154000000000000     -3.667000000000000
H      -0.704000000000000     14.087000000000000     -1.113000000000000
H      -1.885000000000000     15.342000000000001     -1.517000000000000
H      -2.503000000000000     14.400000000000000     -3.641000000000000
H      -1.237000000000000     13.153000000000000     -3.354000000000000
H      -3.049000000000000     11.598000000000001     -0.662000000000000
H      -1.457000000000000     11.523999999999999     -1.491000000000000
H      -3.456000000000000     10.839000000000000     -3.545000000000000
H      -4.140000000000000     10.202999999999999     -2.069000000000000
56

O      -4.342000000000000      9.294000000000000      8.798999999999999
C      -3.941000000000000      7.898000000000000      8.531000000000001
C      -5.258000000000000      7.008000000000000      8.589000000000000
O      -4.879000000000000      5.529000000000000      8.787000000000001
C      -4.665000000000000      4.711000000000000      7.606000000000000
C      -6.008000000000000      4.189000000000000      7.092000000000000
O      -5.762000000000000      3.282000000000000      5.964000000000000
C      -6.963000000000000      2.556000000000000      5.466000000000000
C      -7.844000000000000      3.523000000000000      4.579000000000000
O      -7.058000000000000      3.989000000000000      3.432000000000000
C      -7.200000000000000      3.156000000000000      2.226000000000000
C      -6.381000000000000      3.865000000000000      1.028000000000000
O      -6.500000000000000      5.292000000000000      1.076000000000000
C      -5.741000000000000      6.019000000000000      0.053000000000000
C      -4.424000000000000      6.565000000000000      0.630000000000000
O      -4.064000000000000      7.851000000000000      0.056000000000000
C      -4.424000000000000      9.122000000000000      0.669000000000000
C      -3.224000000000000      9.570000000000000      1.673000000000000
O      -3.606000000000000     10.573000000000000      2.546000000000000
C      -2.930000000000000     10.611000000000001      3.878000000000000
C      -3.903000000000000     11.321999999999999      4.850000000000000
O      -3.264000000000000     11.600000000000000      6.109000000000000
C      -3.125000000000000     10.506000000000000      7.022000000000000
C      -4.527000000000000     10.058000000000000      7.539000000000000
H      -3.409000000000000      7.830000000000000      7.574000000000000
H      -3.301000000000000      7.377000000000000      9.254000000000000
H      -5.861000000000000      7.218000000000000      7.697000000000000
H      -5.877000000000000      7.320000000000000      9.439000000000000
H      -3.953000000000000      3.906000000000000      7.826000000000000
H      -4.255000000000000      5.354000000000000      6.817000000000000
H      -6.461000000000000      3.624000000000000      7.916000000000000
H      -6.656000000000000      5.034000000000000      6.828000000000000
H      -6.769000000000000      1.675000000000000      4.844000000000000
H      -7.576000000000000      2.261000000000000      6.326000000000000
H      -8.257999999999999      4.372000000000000      5.137000000000000
H      -8.728999999999999      3.015000000000000      4.177000000000000
H      -6.834000000000000      2.130000000000000      2.351000000000000
H      -8.234999999999999      3.080000000000000      1.870000000000000
H      -6.659000000000000      3.410000000000000      0.069000000000000
H      -5.336000000000000      3.581000000000000      1.201000000000000
H      -6.356000000000000      6.748000000000000     -0.489000000000000
H      -5.396000000000000      5.286000000000000     -0.687000000000000
H      -4.539000000000000      6.735000000000000      1.708000000000000
H      -3.673000000000000      5.786000000000000      0.448000000000000
H      -5.354000000000000      8.974000000000000      1.232000000000000
H      -4.472000000000000      9.901999999999999     -0.102000000000000
H      -2.378000000000000      9.805999999999999      1.015000000000000
H      -2.947000000000000      8.698000000000000      2.277000000000000
H      -2.707000000000000      9.641000000000000      4.340000000000000
H      -2.003000000000000     11.177000000000000      3.725000000000000
H      -4.241000000000000     12.266000000000000      4.406000000000000
H      -4.825000000000000     10.775000000000000      5.081000000000000
H      -2.379000000000000     10.659000000000001      7.811000000000000
H      -2.647000000000000      9.679000000000000      6.483000000000000
H      -5.104000000000000      9.506000000000000      6.788000000000000
H      -5.119000000000000     10.960000000000001      7.738000000000000
56

O      -5.173000000000000      7.769000000000000      0.006000000000000
C      -5.187000000000000      6.750000000000000      0.965000000000000
C      -6.665000000000000      6.604000000000000      1.534000000000000
O      -6.704000000000000      5.947000000000000      2.768000000000000
C      -6.850000000000000      4.538000000000000      2.807000000000000
C      -8.279999999999999      4.068000000000000      3.153000000000000
O      -8.384000000000000      2.671000000000000      2.942000000000000
C      -9.279999999999999      1.919000000000000      3.771000000000000
C     -10.263999999999999      1.312000000000000      2.787000000000000
O      -9.682000000000000      0.361000000000000      1.771000000000000
C     -10.677000000000000     -0.510000000000000      1.100000000000000
C     -10.160000000000000     -1.317000000000000     -0.089000000000000
O      -9.603999999999999     -0.410000000000000     -1.056000000000000
C      -8.673000000000000     -1.034000000000000     -1.935000000000000
C      -8.364000000000001     -0.235000000000000     -3.192000000000000
O      -7.629000000000000      0.989000000000000     -2.996000000000000
C      -7.638000000000000      1.829000000000000     -4.168000000000000
C      -6.935000000000000      3.203000000000000     -3.754000000000000
O      -6.432000000000000      4.002000000000000     -4.837000000000000
C      -5.394000000000000      4.972000000000000     -4.515000000000000
C      -6.189000000000000      6.329000000000000     -4.186000000000000
O      -5.291000000000000      7.369000000000000     -3.634000000000000
C      -4.775000000000000      6.994000000000000     -2.298000000000000
C      -5.786000000000000      7.614000000000000     -1.252000000000000
H      -4.957000000000000      5.769000000000000      0.531000000000000
H      -4.493000000000000      6.981000000000000      1.783000000000000
H      -7.268000000000000      6.146000000000000      0.740000000000000
H      -6.948000000000000      7.651000000000000      1.695000000000000
H      -6.133000000000000      4.223000000000000      3.575000000000000
H      -6.597000000000000      4.138000000000000      1.817000000000000
H      -8.507999999999999      4.278000000000000      4.205000000000000
H      -8.994999999999999      4.596000000000000      2.510000000000000
H      -8.725000000000000      1.107000000000000      4.256000000000000
H      -9.750999999999999      2.539000000000000      4.544000000000000
H     -10.789999999999999      2.133000000000000      2.286000000000000
H     -11.020000000000000      0.789000000000000      3.386000000000000
H     -11.170000000000000     -1.251000000000000      1.741000000000000
H     -11.526000000000000      0.101000000000000      0.770000000000000
H     -10.826000000000001     -2.036000000000000     -0.583000000000000
H      -9.313000000000001     -1.877000000000000      0.324000000000000
H      -9.063000000000001     -2.033000000000000     -2.164000000000000
H      -7.707000000000000     -1.233000000000000     -1.454000000000000
H      -7.866000000000000     -0.927000000000000     -3.882000000000000
H      -9.301000000000000      0.064000000000000     -3.677000000000000
H      -8.666000000000000      2.049000000000000     -4.483000000000000
H      -6.977000000000000      1.374000000000000     -4.915000000000000
H      -6.103000000000000      3.016000000000000     -3.064000000000000
H      -7.607000000000000      3.795000000000000     -3.121000000000000
H      -4.700000000000000      4.644000000000000     -3.732000000000000
H      -4.772000000000000      5.150000000000000     -5.401000000000000
H      -6.573000000000000      6.709000000000000     -5.141000000000000
H      -7.094000000000000      6.187000000000000     -3.583000000000000
H      -3.807000000000000      7.500000000000000     -2.188000000000000
H      -4.611000000000000      5.912000000000000     -2.222000000000000
H      -6.700000000000000      7.015000000000000     -1.154000000000000
H      -6.070000000000000      8.617000000000001     -1.594000000000000
56

O      -6.302000000000000      3.329000000000000     -1.617000000000000
C      -6.838000000000000      4.191000000000000     -0.617000000000000
C      -5.804000000000000      4.450000000000000      0.505000000000000
O      -6.500000000000000      4.158000000000000      1.770000000000000
C      -5.746000000000000      3.851000000000000      2.875000000000000
C      -6.479000000000000      2.914000000000000      3.938000000000000
O      -5.612000000000000      2.248000000000000      4.955000000000000
C      -5.552000000000000      0.811000000000000      4.744000000000000
C      -6.706000000000000      0.218000000000000      5.610000000000000
O      -6.860000000000000     -1.145000000000000      5.251000000000000
C      -5.685000000000000     -2.010000000000000      5.715000000000000
C      -6.051000000000000     -3.445000000000000      5.457000000000000
O      -5.876000000000000     -3.736000000000000      4.059000000000000
C      -6.142000000000000     -5.069000000000000      3.659000000000000
C      -7.387000000000000     -5.076000000000000      2.707000000000000
O      -7.042000000000000     -4.483000000000000      1.452000000000000
C      -8.141999999999999     -4.269000000000000      0.518000000000000
C      -7.665000000000000     -4.433000000000000     -0.944000000000000
O      -6.864000000000000     -3.338000000000000     -1.470000000000000
C      -7.478000000000000     -2.006000000000000     -1.391000000000000
C      -6.693000000000000     -1.112000000000000     -2.302000000000000
O      -7.451000000000000      0.100000000000000     -2.526000000000000
C      -6.644000000000000      1.230000000000000     -2.779000000000000
C      -7.237000000000000      2.584000000000000     -2.377000000000000
H      -7.230000000000000      5.129000000000000     -1.028000000000000
H      -7.598000000000000      3.599000000000000     -0.093000000000000
H      -5.299000000000000      5.423000000000000      0.482000000000000
H      -5.008000000000000      3.703000000000000      0.400000000000000
H      -5.359000000000000      4.736000000000000      3.394000000000000
H      -4.822000000000000      3.336000000000000      2.581000000000000
H      -7.134000000000000      3.579000000000000      4.515000000000000
H      -7.129000000000000      2.195000000000000      3.424000000000000
H      -5.651000000000000      0.510000000000000      3.694000000000000
H      -4.578000000000000      0.400000000000000      5.034000000000000
H      -7.656000000000000      0.715000000000000      5.377000000000000
H      -6.445000000000000      0.329000000000000      6.670000000000000
H      -4.798000000000000     -1.789000000000000      5.108000000000000
H      -5.539000000000000     -1.858000000000000      6.791000000000000
H      -7.093000000000000     -3.626000000000000      5.748000000000000
H      -5.486000000000000     -4.163000000000000      6.064000000000000
H      -6.348000000000000     -5.675000000000000      4.550000000000000
H      -5.280000000000000     -5.535000000000000      3.165000000000000
H      -7.665000000000000     -6.126000000000000      2.553000000000000
H      -8.270000000000000     -4.592000000000000      3.142000000000000
H      -8.557000000000000     -3.278000000000000      0.740000000000000
H      -8.948000000000000     -4.985000000000000      0.723000000000000
H      -8.539999999999999     -4.503000000000000     -1.602000000000000
H      -7.119000000000000     -5.378000000000000     -1.061000000000000
H      -8.407999999999999     -2.044000000000000     -1.971000000000000
H      -7.701000000000000     -1.557000000000000     -0.415000000000000
H      -5.786000000000000     -0.782000000000000     -1.779000000000000
H      -6.296000000000000     -1.653000000000000     -3.169000000000000
H      -6.485000000000000      1.237000000000000     -3.864000000000000
H      -5.700000000000000      1.177000000000000     -2.221000000000000
H      -8.071999999999999      2.373000000000000     -1.699000000000000
H      -7.516000000000000      3.200000000000000     -3.241000000000000
56

O      -7.614000000000000      1.674000000000000     -0.565000000000000
C      -8.199999999999999      2.971000000000000     -0.675000000000000
C      -7.588000000000000      3.698000000000000     -1.948000000000000
O      -6.250000000000000      4.029000000000000     -1.833000000000000
C      -6.033000000000000      5.278000000000000     -1.136000000000000
C      -4.557000000000000      5.751000000000000     -0.960000000000000
O      -4.255000000000000      6.071000000000000      0.482000000000000
C      -3.244000000000000      5.236000000000000      1.146000000000000
C      -3.321000000000000      5.417000000000000      2.665000000000000
O      -2.053000000000000      5.035000000000000      3.202000000000000
C      -1.993000000000000      3.623000000000000      3.419000000000000
C      -2.434000000000000      3.443000000000000      4.867000000000000
O      -2.322000000000000      1.984000000000000      5.124000000000000
C      -2.423000000000000      1.622000000000000      6.457000000000000
C      -2.657000000000000      0.039000000000000      6.515000000000000
O      -4.058000000000000     -0.199000000000000      6.642000000000000
C      -4.429000000000000     -1.614000000000000      6.485000000000000
C      -4.695000000000000     -1.880000000000000      4.955000000000000
O      -5.850000000000000     -1.117000000000000      4.596000000000000
C      -6.362000000000000     -1.443000000000000      3.211000000000000
C      -7.819000000000000     -0.802000000000000      2.882000000000000
O      -8.333000000000000     -1.190000000000000      1.545000000000000
C      -7.776000000000000     -0.474000000000000      0.452000000000000
C      -8.384000000000000      0.936000000000000      0.431000000000000
H      -9.265000000000001      2.953000000000000     -0.939000000000000
H      -8.058000000000000      3.669000000000000      0.159000000000000
H      -8.244999999999999      4.542000000000000     -2.196000000000000
H      -7.572000000000000      3.056000000000000     -2.838000000000000
H      -6.495000000000000      5.277000000000000     -0.141000000000000
H      -6.485000000000000      6.027000000000000     -1.798000000000000
H      -3.827000000000000      5.025000000000000     -1.340000000000000
H      -4.468000000000000      6.680000000000000     -1.537000000000000
H      -3.376000000000000      4.199000000000000      0.814000000000000
H      -2.211000000000000      5.501000000000000      0.889000000000000
H      -4.160000000000000      4.799000000000000      3.008000000000000
H      -3.613000000000000      6.452000000000000      2.884000000000000
H      -2.604000000000000      3.088000000000000      2.682000000000000
H      -0.960000000000000      3.274000000000000      3.297000000000000
H      -3.479000000000000      3.764000000000000      4.949000000000000
H      -1.715000000000000      3.949000000000000      5.523000000000000
H      -3.209000000000000      2.122000000000000      7.036000000000000
H      -1.468000000000000      1.949000000000000      6.888000000000000
H      -2.145000000000000     -0.373000000000000      5.636000000000000
H      -2.152000000000000     -0.394000000000000      7.388000000000000
H      -5.305000000000000     -1.848000000000000      7.103000000000000
H      -3.539000000000000     -2.192000000000000      6.763000000000000
H      -4.893000000000000     -2.937000000000000      4.737000000000000
H      -3.760000000000000     -1.701000000000000      4.409000000000000
H      -5.654000000000000     -1.141000000000000      2.429000000000000
H      -6.560000000000000     -2.506000000000000      3.026000000000000
H      -8.516000000000000     -1.093000000000000      3.678000000000000
H      -7.770000000000000      0.286000000000000      3.006000000000000
H      -7.941000000000000     -0.983000000000000     -0.506000000000000
H      -6.690000000000000     -0.339000000000000      0.525000000000000
H      -8.222000000000000      1.431000000000000      1.397000000000000
H      -9.423000000000000      0.996000000000000      0.084000000000000
56

O      -4.331000000000000      2.387000000000000     -5.444000000000000
C      -4.020000000000000      3.572000000000000     -6.244000000000000
C      -2.850000000000000      4.298000000000000     -5.563000000000000
O      -3.355000000000000      5.623000000000000     -5.188000000000000
C      -2.349000000000000      6.425000000000000     -4.402000000000000
C      -3.018000000000000      7.834000000000000     -4.144000000000000
O      -2.043000000000000      8.580000000000000     -3.314000000000000
C      -2.049000000000000      8.429000000000000     -1.857000000000000
C      -3.242000000000000      9.183000000000000     -1.229000000000000
O      -3.192000000000000      9.000000000000000      0.237000000000000
C      -4.193000000000000      9.726000000000001      0.965000000000000
C      -4.804000000000000      8.946000000000000      2.125000000000000
O      -5.351000000000000      7.694000000000000      1.754000000000000
C      -6.017000000000000      7.040000000000000      2.809000000000000
C      -6.001000000000000      5.546000000000000      2.538000000000000
O      -6.643000000000000      5.248000000000000      1.332000000000000
C      -6.509000000000000      3.869000000000000      0.972000000000000
C      -7.543000000000000      3.673000000000000     -0.194000000000000
O      -7.849000000000000      2.284000000000000     -0.424000000000000
C      -7.172000000000000      1.638000000000000     -1.520000000000000
C      -7.756000000000000      1.984000000000000     -2.861000000000000
O      -7.282000000000000      1.044000000000000     -3.913000000000000
C      -5.853000000000000      1.149000000000000     -4.241000000000000
C      -5.695000000000000      2.000000000000000     -5.416000000000000
H      -3.783000000000000      3.226000000000000     -7.258000000000000
H      -4.899000000000000      4.221000000000000     -6.344000000000000
H      -1.977000000000000      4.450000000000000     -6.211000000000000
H      -2.440000000000000      3.737000000000000     -4.714000000000000
H      -1.498000000000000      6.603000000000000     -5.072000000000000
H      -1.970000000000000      5.868000000000000     -3.535000000000000
H      -3.095000000000000      8.343999999999999     -5.112000000000000
H      -3.956000000000000      7.636000000000000     -3.611000000000000
H      -2.073000000000000      7.360000000000000     -1.613000000000000
H      -1.126000000000000      8.930000000000000     -1.541000000000000
H      -4.198000000000000      8.837000000000000     -1.643000000000000
H      -3.126000000000000     10.265000000000001     -1.369000000000000
H      -3.743000000000000     10.680000000000000      1.268000000000000
H      -5.031000000000000      9.973000000000001      0.302000000000000
H      -5.525000000000000      9.645000000000000      2.567000000000000
H      -4.054000000000000      8.858000000000001      2.921000000000000
H      -7.045000000000000      7.415000000000000      2.888000000000000
H      -5.490000000000000      7.118000000000000      3.768000000000000
H      -4.955000000000000      5.223000000000000      2.466000000000000
H      -6.589000000000000      5.145000000000000      3.373000000000000
H      -6.729000000000000      3.177000000000000      1.794000000000000
H      -5.504000000000000      3.598000000000000      0.626000000000000
H      -7.185000000000000      4.272000000000000     -1.041000000000000
H      -8.446999999999999      4.206000000000000      0.125000000000000
H      -6.100000000000000      1.873000000000000     -1.500000000000000
H      -7.191000000000000      0.557000000000000     -1.338000000000000
H      -8.846000000000000      1.892000000000000     -2.771000000000000
H      -7.538000000000000      3.031000000000000     -3.102000000000000
H      -5.492000000000000      0.156000000000000     -4.537000000000000
H      -5.294000000000000      1.616000000000000     -3.420000000000000
H      -6.303000000000000      2.909000000000000     -5.318000000000000
H      -5.932000000000000      1.428000000000000     -6.322000000000000
56

O      -6.205000000000000      3.077000000000000     -2.946000000000000
C      -6.095000000000000      4.417000000000000     -3.284000000000000
C      -4.700000000000000      4.954000000000000     -2.742000000000000
O      -4.883000000000000      5.669000000000000     -1.547000000000000
C      -3.788000000000000      5.697000000000000     -0.605000000000000
C      -4.136000000000000      6.623000000000000      0.579000000000000
O      -3.096000000000000      6.574000000000000      1.526000000000000
C      -3.254000000000000      5.454000000000000      2.455000000000000
C      -4.021000000000000      6.011000000000000      3.713000000000000
O      -4.206000000000000      4.965000000000000      4.594000000000000
C      -5.126000000000000      5.274000000000000      5.594000000000000
C      -4.898000000000000      4.189000000000000      6.651000000000000
O      -5.082000000000000      2.889000000000000      6.117000000000000
C      -5.879000000000000      1.940000000000000      6.879000000000000
C      -7.414000000000000      2.209000000000000      6.589000000000000
O      -7.686000000000000      1.904000000000000      5.187000000000000
C      -8.295999999999999      0.559000000000000      4.915000000000000
C      -7.953000000000000      0.002000000000000      3.499000000000000
O      -8.340000000000000      0.942000000000000      2.486000000000000
C      -7.976000000000000      0.569000000000000      1.167000000000000
C      -8.699000000000000      1.456000000000000      0.095000000000000
O      -8.474000000000000      0.875000000000000     -1.226000000000000
C      -7.341000000000000      1.288000000000000     -1.957000000000000
C      -7.533000000000000      2.566000000000000     -2.700000000000000
H      -6.159000000000000      4.687000000000000     -4.346000000000000
H      -6.806000000000000      5.047000000000000     -2.736000000000000
H      -4.215000000000000      5.591000000000000     -3.492000000000000
H      -4.064000000000000      4.079000000000000     -2.556000000000000
H      -2.815000000000000      5.967000000000000     -1.033000000000000
H      -3.590000000000000      4.696000000000000     -0.201000000000000
H      -4.336000000000000      7.600000000000000      0.123000000000000
H      -5.036000000000000      6.207000000000000      1.050000000000000
H      -3.845000000000000      4.625000000000000      2.049000000000000
H      -2.290000000000000      5.020000000000000      2.748000000000000
H      -4.915000000000000      6.614000000000000      3.512000000000000
H      -3.292000000000000      6.744000000000000      4.080000000000000
H      -4.990000000000000      6.312000000000000      5.921000000000000
H      -6.107000000000000      5.050000000000000      5.156000000000000
H      -5.639000000000000      4.319000000000000      7.450000000000000
H      -3.914000000000000      4.250000000000000      7.133000000000000
H      -5.745000000000000      2.112000000000000      7.954000000000000
H      -5.620000000000000      0.900000000000000      6.648000000000000
H      -8.106999999999999      1.723000000000000      7.286000000000000
H      -7.611000000000000      3.264000000000000      6.816000000000000
H      -9.384000000000000      0.688000000000000      4.962000000000000
H      -8.083000000000000     -0.248000000000000      5.626000000000000
H      -8.519000000000000     -0.929000000000000      3.376000000000000
H      -6.873000000000000     -0.167000000000000      3.404000000000000
H      -6.888000000000000      0.530000000000000      1.033000000000000
H      -8.444000000000001     -0.419000000000000      1.070000000000000
H      -9.786000000000000      1.534000000000000      0.216000000000000
H      -8.324999999999999      2.488000000000000      0.097000000000000
H      -7.179000000000000      0.537000000000000     -2.740000000000000
H      -6.416000000000000      1.299000000000000     -1.367000000000000
H      -8.089000000000000      3.230000000000000     -2.026000000000000
H      -7.986000000000000      2.487000000000000     -3.695000000000000
56

O       0.563000000000000      4.146000000000000      0.334000000000000
C       1.298000000000000      4.745000000000000      1.450000000000000
C       0.924000000000000      4.044000000000000      2.818000000000000
O       1.786000000000000      2.908000000000000      3.070000000000000
C       1.402000000000000      2.146000000000000      4.264000000000000
C       1.837000000000000      0.734000000000000      4.091000000000000
O       1.222000000000000     -0.217000000000000      5.058000000000000
C       0.220000000000000     -1.154000000000000      4.541000000000000
C      -0.183000000000000     -2.148000000000000      5.663000000000000
O      -1.272000000000000     -2.979000000000000      5.239000000000000
C      -0.888000000000000     -3.969000000000000      4.266000000000000
C      -2.143000000000000     -4.623000000000000      3.632000000000000
O      -1.808000000000000     -4.878000000000000      2.206000000000000
C      -2.967000000000000     -4.912000000000000      1.322000000000000
C      -2.594000000000000     -4.128000000000000      0.038000000000000
O      -3.398000000000000     -2.910000000000000     -0.119000000000000
C      -3.261000000000000     -2.264000000000000     -1.404000000000000
C      -3.883000000000000     -0.850000000000000     -1.193000000000000
O      -3.714000000000000     -0.039000000000000     -2.467000000000000
C      -2.462000000000000      0.720000000000000     -2.613000000000000
C      -2.538000000000000      2.127000000000000     -1.880000000000000
O      -1.210000000000000      2.728000000000000     -1.540000000000000
C      -1.382000000000000      4.186000000000000     -1.236000000000000
C      -0.853000000000000      4.477000000000000      0.190000000000000
H       2.375000000000000      4.576000000000000      1.334000000000000
H       1.115000000000000      5.825000000000000      1.518000000000000
H      -0.122000000000000      3.714000000000000      2.798000000000000
H       0.958000000000000      4.714000000000000      3.686000000000000
H       0.314000000000000      2.198000000000000      4.391000000000000
H       1.803000000000000      2.685000000000000      5.131000000000000
H       1.610000000000000      0.430000000000000      3.062000000000000
H       2.913000000000000      0.691000000000000      4.299000000000000
H      -0.643000000000000     -0.599000000000000      4.152000000000000
H       0.653000000000000     -1.747000000000000      3.726000000000000
H      -0.485000000000000     -1.589000000000000      6.557000000000000
H       0.660000000000000     -2.800000000000000      5.926000000000000
H      -0.384000000000000     -3.460000000000000      3.435000000000000
H      -0.128000000000000     -4.665000000000000      4.643000000000000
H      -2.945000000000000     -3.879000000000000      3.712000000000000
H      -2.494000000000000     -5.509000000000000      4.175000000000000
H      -3.837000000000000     -4.522000000000000      1.864000000000000
H      -3.287000000000000     -5.921000000000000      1.033000000000000
H      -1.538000000000000     -3.862000000000000      0.166000000000000
H      -2.670000000000000     -4.806000000000000     -0.821000000000000
H      -3.803000000000000     -2.868000000000000     -2.141000000000000
H      -2.219000000000000     -2.178000000000000     -1.737000000000000
H      -3.335000000000000     -0.322000000000000     -0.402000000000000
H      -4.942000000000000     -0.973000000000000     -0.935000000000000
H      -1.592000000000000      0.215000000000000     -2.177000000000000
H      -2.286000000000000      0.856000000000000     -3.687000000000000
H      -3.161000000000000      2.778000000000000     -2.505000000000000
H      -3.109000000000000      1.915000000000000     -0.968000000000000
H      -2.444000000000000      4.458000000000000     -1.244000000000000
H      -0.792000000000000      4.822000000000000     -1.907000000000000
H      -1.429000000000000      3.910000000000000      0.931000000000000
H      -1.034000000000000      5.503000000000000      0.533000000000000
56

O      -4.045000000000000      2.212000000000000     -3.299000000000000
C      -2.940000000000000      3.187000000000000     -3.168000000000000
C      -3.104000000000000      4.124000000000000     -1.942000000000000
O      -3.509000000000000      3.260000000000000     -0.918000000000000
C      -2.844000000000000      3.328000000000000      0.360000000000000
C      -3.807000000000000      2.817000000000000      1.412000000000000
O      -3.036000000000000      2.631000000000000      2.591000000000000
C      -2.492000000000000      1.335000000000000      2.671000000000000
C      -3.408000000000000      0.407000000000000      3.419000000000000
O      -2.571000000000000     -0.778000000000000      3.867000000000000
C      -3.149000000000000     -1.610000000000000      4.843000000000000
C      -3.836000000000000     -2.847000000000000      4.174000000000000
O      -2.731000000000000     -3.648000000000000      3.605000000000000
C      -3.040000000000000     -5.019000000000000      3.182000000000000
C      -2.289000000000000     -5.412000000000000      1.898000000000000
O      -3.007000000000000     -5.024000000000000      0.775000000000000
C      -2.193000000000000     -4.730000000000000     -0.406000000000000
C      -3.251000000000000     -4.282000000000000     -1.495000000000000
O      -2.611000000000000     -4.036000000000000     -2.716000000000000
C      -2.314000000000000     -2.631000000000000     -3.128000000000000
C      -3.609000000000000     -1.878000000000000     -3.331000000000000
O      -3.258000000000000     -0.512000000000000     -3.791000000000000
C      -4.400000000000000      0.054000000000000     -4.389000000000000
C      -4.053000000000000      1.505000000000000     -4.585000000000000
H      -1.992000000000000      2.635000000000000     -3.173000000000000
H      -2.961000000000000      3.734000000000000     -4.118000000000000
H      -3.803000000000000      4.935000000000000     -2.181000000000000
H      -2.164000000000000      4.607000000000000     -1.648000000000000
H      -2.558000000000000      4.352000000000000      0.633000000000000
H      -1.937000000000000      2.712000000000000      0.315000000000000
H      -4.666000000000000      3.464000000000000      1.632000000000000
H      -4.300000000000000      1.888000000000000      1.102000000000000
H      -2.147000000000000      0.839000000000000      1.756000000000000
H      -1.613000000000000      1.367000000000000      3.327000000000000
H      -4.291000000000000      0.153000000000000      2.819000000000000
H      -3.721000000000000      0.980000000000000      4.301000000000000
H      -2.331000000000000     -2.038000000000000      5.435000000000000
H      -3.817000000000000     -1.066000000000000      5.522000000000000
H      -4.558000000000000     -2.484000000000000      3.432000000000000
H      -4.441000000000000     -3.484000000000000      4.832000000000000
H      -4.118000000000000     -5.210000000000000      3.258000000000000
H      -2.631000000000000     -5.662000000000000      3.970000000000000
H      -1.242000000000000     -5.090000000000000      1.951000000000000
H      -2.224000000000000     -6.505000000000000      1.840000000000000
H      -1.667000000000000     -5.675000000000000     -0.589000000000000
H      -1.512000000000000     -3.931000000000000     -0.086000000000000
H      -3.695000000000000     -3.339000000000000     -1.151000000000000
H      -4.009000000000000     -5.064000000000000     -1.621000000000000
H      -1.629000000000000     -2.218000000000000     -2.377000000000000
H      -1.705000000000000     -2.634000000000000     -4.040000000000000
H      -4.212000000000000     -2.374000000000000     -4.101000000000000
H      -4.140000000000000     -1.821000000000000     -2.373000000000000
H      -5.233000000000000      0.075000000000000     -3.676000000000000
H      -4.739000000000000     -0.413000000000000     -5.322000000000000
H      -4.823000000000000      1.932000000000000     -5.240000000000000
H      -3.070000000000000      1.533000000000000     -5.071000000000000
56

O      -3.153000000000000     -0.691000000000000     -3.195000000000000
C      -3.087000000000000      0.736000000000000     -3.548000000000000
C      -3.734000000000000      1.504000000000000     -2.427000000000000
O      -2.732000000000000      1.844000000000000     -1.370000000000000
C      -3.339000000000000      2.309000000000000     -0.122000000000000
C      -2.142000000000000      2.908000000000000      0.724000000000000
O      -2.124000000000000      2.453000000000000      2.147000000000000
C      -1.319000000000000      1.322000000000000      2.418000000000000
C       0.132000000000000      1.802000000000000      2.846000000000000
O       0.968000000000000      0.720000000000000      3.052000000000000
C       1.370000000000000      0.432000000000000      4.428000000000000
C       1.859000000000000     -1.028000000000000      4.392000000000000
O       0.767000000000000     -1.893000000000000      4.857000000000000
C       1.251000000000000     -3.313000000000000      5.186000000000000
C       1.365000000000000     -4.158000000000000      3.870000000000000
O       0.063000000000000     -4.677000000000000      3.454000000000000
C       0.126000000000000     -5.051000000000000      2.041000000000000
C      -1.235000000000000     -5.649000000000000      1.598000000000000
O      -1.497000000000000     -5.435000000000000      0.209000000000000
C      -2.384000000000000     -4.462000000000000     -0.285000000000000
C      -1.772000000000000     -3.931000000000000     -1.617000000000000
O      -2.763000000000000     -3.414000000000000     -2.480000000000000
C      -2.271000000000000     -2.973000000000000     -3.800000000000000
C      -2.072000000000000     -1.448000000000000     -3.858000000000000
H      -2.052000000000000      1.091000000000000     -3.630000000000000
H      -3.715000000000000      1.066000000000000     -4.385000000000000
H      -4.553000000000000      0.890000000000000     -2.034000000000000
H      -4.287000000000000      2.411000000000000     -2.701000000000000
H      -3.658000000000000      1.443000000000000      0.472000000000000
H      -4.210000000000000      2.957000000000000     -0.278000000000000
H      -1.167000000000000      2.612000000000000      0.317000000000000
H      -2.228000000000000      3.997000000000000      0.624000000000000
H      -1.844000000000000      0.709000000000000      3.160000000000000
H      -1.214000000000000      0.739000000000000      1.495000000000000
H      -0.012000000000000      2.447000000000000      3.722000000000000
H       0.589000000000000      2.315000000000000      1.991000000000000
H       2.230000000000000      1.057000000000000      4.698000000000000
H       0.610000000000000      0.427000000000000      5.219000000000000
H       2.660000000000000     -1.240000000000000      5.111000000000000
H       2.167000000000000     -1.335000000000000      3.385000000000000
H       0.487000000000000     -3.845000000000000      5.766000000000000
H       2.230000000000000     -3.256000000000000      5.678000000000000
H       1.830000000000000     -3.558000000000000      3.077000000000000
H       1.992000000000000     -5.035000000000000      4.069000000000000
H       0.842000000000000     -5.826000000000000      1.739000000000000
H       0.334000000000000     -4.149000000000000      1.452000000000000
H      -2.074000000000000     -5.240000000000000      2.174000000000000
H      -1.157000000000000     -6.705000000000000      1.882000000000000
H      -3.391000000000000     -4.876000000000000     -0.422000000000000
H      -2.527000000000000     -3.629000000000000      0.415000000000000
H      -0.944000000000000     -3.235000000000000     -1.432000000000000
H      -1.257000000000000     -4.750000000000000     -2.132000000000000
H      -2.873000000000000     -3.340000000000000     -4.640000000000000
H      -1.300000000000000     -3.443000000000000     -4.001000000000000
H      -1.997000000000000     -1.123000000000000     -4.903000000000000
H      -1.157000000000000     -1.156000000000000     -3.329000000000000
56

O       0.688000000000000     -0.997000000000000      5.515000000000000
C       1.883000000000000     -0.249000000000000      5.781000000000000
C       3.061000000000000     -0.981000000000000      5.045000000000000
O       3.116000000000000     -0.533000000000000      3.715000000000000
C       4.173000000000000     -1.020000000000000      2.933000000000000
C       3.617000000000000     -2.182000000000000      2.131000000000000
O       4.375000000000000     -2.297000000000000      0.871000000000000
C       3.935000000000000     -1.571000000000000     -0.261000000000000
C       3.021000000000000     -2.488000000000000     -1.015000000000000
O       2.588000000000000     -1.800000000000000     -2.219000000000000
C       1.953000000000000     -2.654000000000000     -3.156000000000000
C       1.077000000000000     -1.784000000000000     -4.111000000000000
O       0.016000000000000     -1.103000000000000     -3.383000000000000
C      -1.351000000000000     -1.570000000000000     -3.668000000000000
C      -2.241000000000000     -0.627000000000000     -2.875000000000000
O      -2.699000000000000     -1.221000000000000     -1.673000000000000
C      -3.657000000000000     -0.444000000000000     -0.964000000000000
C      -2.884000000000000      0.373000000000000      0.162000000000000
O      -3.886000000000000      0.681000000000000      1.282000000000000
C      -3.633000000000000      0.058000000000000      2.589000000000000
C      -2.542000000000000      0.830000000000000      3.397000000000000
O      -2.061000000000000      0.008000000000000      4.416000000000000
C      -1.113000000000000      0.587000000000000      5.267000000000000
C      -0.465000000000000     -0.504000000000000      6.228000000000000
H       1.831000000000000      0.796000000000000      5.451000000000000
H       2.049000000000000     -0.354000000000000      6.861000000000000
H       2.861000000000000     -2.059000000000000      5.057000000000000
H       3.994000000000000     -0.761000000000000      5.578000000000000
H       5.038000000000000     -1.408000000000000      3.484000000000000
H       4.458000000000000     -0.259000000000000      2.196000000000000
H       3.596000000000000     -3.117000000000000      2.704000000000000
H       2.594000000000000     -1.954000000000000      1.807000000000000
H       3.367000000000000     -0.688000000000000      0.057000000000000
H       4.798000000000000     -1.121000000000000     -0.768000000000000
H       2.157000000000000     -2.858000000000000     -0.450000000000000
H       3.652000000000000     -3.373000000000000     -1.159000000000000
H       2.765000000000000     -3.113000000000000     -3.733000000000000
H       1.409000000000000     -3.449000000000000     -2.632000000000000
H       0.643000000000000     -2.317000000000000     -4.966000000000000
H       1.776000000000000     -1.030000000000000     -4.493000000000000
H      -1.553000000000000     -2.610000000000000     -3.386000000000000
H      -1.565000000000000     -1.540000000000000     -4.744000000000000
H      -1.688000000000000      0.304000000000000     -2.701000000000000
H      -3.112000000000000     -0.332000000000000     -3.474000000000000
H      -4.500000000000000     -1.081000000000000     -0.667000000000000
H      -4.125000000000000      0.283000000000000     -1.639000000000000
H      -2.430000000000000      1.327000000000000     -0.132000000000000
H      -2.095000000000000     -0.264000000000000      0.581000000000000
H      -4.581000000000000      0.191000000000000      3.124000000000000
H      -3.290000000000000     -0.978000000000000      2.474000000000000
H      -1.758000000000000      1.122000000000000      2.687000000000000
H      -3.125000000000000      1.658000000000000      3.818000000000000
H      -1.566000000000000      1.315000000000000      5.951000000000000
H      -0.330000000000000      1.093000000000000      4.689000000000000
H      -1.170000000000000     -1.308000000000000      6.474000000000000
H      -0.228000000000000      0.068000000000000      7.133000000000000
56

O       2.591000000000000      6.926000000000000      2.591000000000000
C       3.502000000000000      6.254000000000000      3.507000000000000
C       4.765000000000000      5.722000000000000      2.836000000000000
O       4.467000000000000      4.572000000000000      2.084000000000000
C       5.654000000000000      4.084000000000000      1.338000000000000
C       5.135000000000000      3.229000000000000      0.105000000000000
O       4.468000000000000      4.050000000000000     -0.861000000000000
C       3.761000000000000      3.316000000000000     -1.933000000000000
C       3.143000000000000      4.283000000000000     -3.025000000000000
O       1.859000000000000      3.739000000000000     -3.538000000000000
C       1.301000000000000      4.415000000000000     -4.678000000000000
C       0.307000000000000      3.555000000000000     -5.465000000000000
O      -0.975000000000000      3.426000000000000     -4.724000000000000
C      -1.846000000000000      4.575000000000000     -4.879000000000000
C      -3.177000000000000      4.296000000000000     -4.133000000000000
O      -3.090000000000000      4.602000000000000     -2.755000000000000
C      -3.516000000000000      5.946000000000000     -2.340000000000000
C      -3.936000000000000      5.764000000000000     -0.852000000000000
O      -3.200000000000000      6.698000000000000      0.017000000000000
C      -2.205000000000000      6.093000000000000      0.926000000000000
C      -1.569000000000000      7.298000000000000      1.659000000000000
O      -1.015000000000000      6.936000000000000      2.964000000000000
C       0.341000000000000      6.309000000000000      2.969000000000000
C       1.440000000000000      7.380000000000000      3.129000000000000
H       3.835000000000000      7.022000000000000      4.217000000000000
H       3.017000000000000      5.498000000000000      4.137000000000000
H       5.623000000000000      5.586000000000000      3.505000000000000
H       5.019000000000000      6.548000000000000      2.161000000000000
H       6.220000000000000      3.385000000000000      1.966000000000000
H       6.337000000000000      4.894000000000000      1.055000000000000
H       6.028000000000000      2.734000000000000     -0.297000000000000
H       4.431000000000000      2.444000000000000      0.406000000000000
H       4.467000000000000      2.680000000000000     -2.481000000000000
H       2.975000000000000      2.768000000000000     -1.399000000000000
H       3.804000000000000      4.374000000000000     -3.896000000000000
H       2.920000000000000      5.252000000000000     -2.562000000000000
H       0.942000000000000      5.384000000000000     -4.311000000000000
H       2.130000000000000      4.680000000000000     -5.346000000000000
H       0.737000000000000      2.560000000000000     -5.629000000000000
H       0.174000000000000      3.864000000000000     -6.509000000000000
H      -2.131000000000000      4.749000000000000     -5.924000000000000
H      -1.455000000000000      5.519000000000000     -4.479000000000000
H      -3.835000000000000      5.074000000000000     -4.541000000000000
H      -3.620000000000000      3.325000000000000     -4.385000000000000
H      -4.391000000000000      6.284000000000000     -2.908000000000000
H      -2.693000000000000      6.662000000000000     -2.456000000000000
H      -3.808000000000000      4.732000000000000     -0.502000000000000
H      -5.011000000000000      5.983000000000000     -0.823000000000000
H      -2.689000000000000      5.370000000000000      1.594000000000000
H      -1.458000000000000      5.565000000000000      0.320000000000000
H      -0.760000000000000      7.672000000000000      1.020000000000000
H      -2.252000000000000      8.148000000000000      1.774000000000000
H       0.529000000000000      5.621000000000000      2.135000000000000
H       0.298000000000000      5.761000000000000      3.918000000000000
H       1.561000000000000      7.641000000000000      4.187000000000000
H       1.130000000000000      8.237000000000000      2.518000000000000
56

O       3.475000000000000      3.441000000000000     -3.790000000000000
C       4.702000000000000      2.717000000000000     -3.567000000000000
C       4.390000000000000      1.260000000000000     -3.831000000000000
O       3.683000000000000      1.263000000000000     -5.131000000000000
C       3.014000000000000     -0.018000000000000     -5.330000000000000
C       2.871000000000000     -0.260000000000000     -6.871000000000000
O       1.635000000000000      0.230000000000000     -7.380000000000000
C       0.583000000000000     -0.822000000000000     -7.368000000000000
C      -0.789000000000000     -0.428000000000000     -8.023999999999999
O      -1.785000000000000     -1.483000000000000     -7.851000000000000
C      -2.538000000000000     -1.337000000000000     -6.517000000000000
C      -3.866000000000000     -0.707000000000000     -6.678000000000000
O      -4.382000000000000     -0.488000000000000     -5.316000000000000
C      -5.291000000000000      0.640000000000000     -5.235000000000000
C      -5.773000000000000      0.878000000000000     -3.843000000000000
O      -4.753000000000000      1.772000000000000     -3.171000000000000
C      -4.919000000000000      3.180000000000000     -3.148000000000000
C      -3.788000000000000      3.954000000000000     -2.437000000000000
O      -2.551000000000000      3.180000000000000     -2.384000000000000
C      -1.366000000000000      3.853000000000000     -1.796000000000000
C      -0.737000000000000      4.924000000000000     -2.662000000000000
O       0.647000000000000      5.077000000000000     -2.252000000000000
C       1.706000000000000      4.972000000000000     -3.241000000000000
C       2.940000000000000      4.176000000000000     -2.728000000000000
H       5.474000000000000      2.958000000000000     -4.309000000000000
H       5.120000000000000      2.930000000000000     -2.575000000000000
H       3.750000000000000      0.882000000000000     -3.025000000000000
H       5.303000000000000      0.657000000000000     -3.914000000000000
H       2.078000000000000     -0.093000000000000     -4.763000000000000
H       3.628000000000000     -0.863000000000000     -4.994000000000000
H       3.714000000000000      0.299000000000000     -7.297000000000000
H       3.054000000000000     -1.284000000000000     -7.220000000000000
H       1.035000000000000     -1.721000000000000     -7.806000000000000
H       0.328000000000000     -1.115000000000000     -6.342000000000000
H      -0.601000000000000     -0.294000000000000     -9.096000000000000
H      -1.142000000000000      0.561000000000000     -7.705000000000000
H      -2.678000000000000     -2.380000000000000     -6.205000000000000
H      -1.988000000000000     -0.839000000000000     -5.709000000000000
H      -4.479000000000000     -1.471000000000000     -7.171000000000000
H      -3.848000000000000      0.262000000000000     -7.190000000000000
H      -6.187000000000000      0.345000000000000     -5.796000000000000
H      -4.814000000000000      1.519000000000000     -5.685000000000000
H      -6.784000000000000      1.304000000000000     -3.836000000000000
H      -5.798000000000000     -0.125000000000000     -3.399000000000000
H      -5.870000000000000      3.451000000000000     -2.673000000000000
H      -4.962000000000000      3.450000000000000     -4.210000000000000
H      -4.108000000000000      4.226000000000000     -1.423000000000000
H      -3.663000000000000      4.870000000000000     -3.028000000000000
H      -1.695000000000000      4.259000000000000     -0.831000000000000
H      -0.611000000000000      3.124000000000000     -1.477000000000000
H      -0.754000000000000      4.640000000000000     -3.721000000000000
H      -1.216000000000000      5.911000000000000     -2.674000000000000
H       2.018000000000000      5.936000000000000     -3.661000000000000
H       1.249000000000000      4.348000000000000     -4.019000000000000
H       2.690000000000000      3.552000000000000     -1.861000000000000
H       3.707000000000000      4.885000000000000     -2.393000000000000
56

O      -2.058000000000000     -2.932000000000000     -4.438000000000000
C      -2.946000000000000     -3.144000000000000     -3.275000000000000
C      -4.435000000000000     -2.985000000000000     -3.669000000000000
O      -4.718000000000000     -1.646000000000000     -3.387000000000000
C      -6.092000000000000     -1.217000000000000     -3.694000000000000
C      -6.197000000000000      0.345000000000000     -3.365000000000000
O      -5.618000000000000      1.199000000000000     -4.428000000000000
C      -5.363000000000000      2.551000000000000     -3.914000000000000
C      -4.104000000000000      2.686000000000000     -3.068000000000000
O      -3.860000000000000      4.027000000000000     -2.625000000000000
C      -2.775000000000000      4.725000000000000     -3.316000000000000
C      -1.521000000000000      4.471000000000000     -2.506000000000000
O      -0.432000000000000      4.905000000000000     -3.312000000000000
C       0.829000000000000      4.821000000000000     -2.658000000000000
C       1.898000000000000      5.164000000000000     -3.665000000000000
O       2.014000000000000      4.342000000000000     -4.851000000000000
C       3.296000000000000      3.632000000000000     -4.957000000000000
C       2.949000000000000      2.414000000000000     -5.893000000000000
O       2.913000000000000      1.239000000000000     -5.080000000000000
C       2.272000000000000      0.054000000000000     -5.671000000000000
C       2.391000000000000     -1.115000000000000     -4.639000000000000
O       1.394000000000000     -2.097000000000000     -5.020000000000000
C       0.108000000000000     -1.807000000000000     -4.343000000000000
C      -0.643000000000000     -3.143000000000000     -4.221000000000000
H      -2.867000000000000     -4.190000000000000     -2.954000000000000
H      -2.677000000000000     -2.400000000000000     -2.515000000000000
H      -5.055000000000000     -3.613000000000000     -3.017000000000000
H      -4.593000000000000     -3.215000000000000     -4.730000000000000
H      -6.810000000000000     -1.789000000000000     -3.093000000000000
H      -6.242000000000000     -1.333000000000000     -4.774000000000000
H      -7.239000000000000      0.592000000000000     -3.127000000000000
H      -5.588000000000000      0.465000000000000     -2.460000000000000
H      -5.371000000000000      3.264000000000000     -4.747000000000000
H      -6.211000000000000      2.751000000000000     -3.247000000000000
H      -3.282000000000000      2.243000000000000     -3.643000000000000
H      -4.383000000000000      2.121000000000000     -2.170000000000000
H      -2.759000000000000      4.438000000000000     -4.375000000000000
H      -3.013000000000000      5.794000000000000     -3.375000000000000
H      -1.430000000000000      3.379000000000000     -2.453000000000000
H      -1.589000000000000      4.955000000000000     -1.524000000000000
H       0.944000000000000      3.808000000000000     -2.251000000000000
H       0.914000000000000      5.447000000000000     -1.762000000000000
H       1.779000000000000      6.219000000000000     -3.940000000000000
H       2.846000000000000      5.106000000000000     -3.115000000000000
H       3.638000000000000      3.332000000000000     -3.959000000000000
H       3.982000000000000      4.341000000000000     -5.436000000000000
H       3.784000000000000      2.368000000000000     -6.603000000000000
H       2.009000000000000      2.657000000000000     -6.404000000000000
H       1.234000000000000      0.185000000000000     -6.000000000000000
H       2.805000000000000     -0.239000000000000     -6.584000000000000
H       3.382000000000000     -1.582000000000000     -4.690000000000000
H       2.266000000000000     -0.794000000000000     -3.597000000000000
H      -0.490000000000000     -1.038000000000000     -4.847000000000000
H       0.282000000000000     -1.447000000000000     -3.321000000000000
H      -0.449000000000000     -3.594000000000000     -3.240000000000000
H      -0.247000000000000     -3.812000000000000     -4.996000000000000
56

O       0.748000000000000     -4.745000000000000     -3.302000000000000
C      -0.067000000000000     -4.687000000000000     -4.503000000000000
C      -1.515000000000000     -4.582000000000000     -4.158000000000000
O      -2.263000000000000     -3.512000000000000     -4.927000000000000
C      -3.622000000000000     -3.337000000000000     -4.531000000000000
C      -3.866000000000000     -2.120000000000000     -3.647000000000000
O      -3.663000000000000     -0.957000000000000     -4.513000000000000
C      -4.005000000000000      0.313000000000000     -3.869000000000000
C      -2.752000000000000      0.854000000000000     -3.217000000000000
O      -3.078000000000000      1.980000000000000     -2.386000000000000
C      -1.978000000000000      2.499000000000000     -1.610000000000000
C      -1.253000000000000      3.611000000000000     -2.468000000000000
O       0.043000000000000      3.859000000000000     -1.943000000000000
C       1.128000000000000      3.152000000000000     -2.620000000000000
C       2.246000000000000      2.844000000000000     -1.617000000000000
O       3.067000000000000      1.801000000000000     -2.158000000000000
C       4.417000000000000      1.616000000000000     -1.714000000000000
C       5.283000000000000      0.867000000000000     -2.727000000000000
O       5.387000000000000     -0.548000000000000     -2.345000000000000
C       5.324000000000000     -1.491000000000000     -3.405000000000000
C       4.512000000000000     -2.710000000000000     -2.970000000000000
O       4.228000000000000     -3.562000000000000     -4.159000000000000
C       2.816000000000000     -3.823000000000000     -4.416000000000000
C       2.240000000000000     -4.860000000000000     -3.426000000000000
H       0.161000000000000     -3.786000000000000     -5.086000000000000
H       0.168000000000000     -5.533000000000000     -5.161000000000000
H      -1.676000000000000     -4.343000000000000     -3.100000000000000
H      -1.942000000000000     -5.575000000000000     -4.346000000000000
H      -4.091000000000000     -4.164000000000000     -3.984000000000000
H      -4.166000000000000     -3.165000000000000     -5.468000000000000
H      -4.929000000000000     -2.277000000000000     -3.427000000000000
H      -3.136000000000000     -2.122000000000000     -2.828000000000000
H      -4.241000000000000      1.008000000000000     -4.685000000000000
H      -4.860000000000000      0.219000000000000     -3.189000000000000
H      -1.973000000000000      1.142000000000000     -3.934000000000000
H      -2.441000000000000      0.048000000000000     -2.541000000000000
H      -2.332000000000000      3.032000000000000     -0.720000000000000
H      -1.262000000000000      1.700000000000000     -1.377000000000000
H      -1.829000000000000      4.539000000000000     -2.368000000000000
H      -1.184000000000000      3.224000000000000     -3.492000000000000
H       1.512000000000000      3.788000000000000     -3.427000000000000
H       0.831000000000000      2.113000000000000     -2.810000000000000
H       2.751000000000000      3.786000000000000     -1.371000000000000
H       1.781000000000000      2.434000000000000     -0.712000000000000
H       4.417000000000000      1.046000000000000     -0.777000000000000
H       4.942000000000000      2.578000000000000     -1.660000000000000
H       6.300000000000000      1.267000000000000     -2.638000000000000
H       4.947000000000000      1.013000000000000     -3.761000000000000
H       4.901000000000000     -1.087000000000000     -4.333000000000000
H       6.308000000000000     -1.850000000000000     -3.732000000000000
H       5.091000000000000     -3.206000000000000     -2.181000000000000
H       3.552000000000000     -2.413000000000000     -2.529000000000000
H       2.879000000000000     -4.201000000000000     -5.444000000000000
H       2.199000000000000     -2.918000000000000     -4.351000000000000
H       2.648000000000000     -4.711000000000000     -2.419000000000000
H       2.337000000000000     -5.873000000000000     -3.837000000000000
56

O       5.391000000000000     -3.409000000000000     -0.841000000000000
C       5.196000000000000     -4.812000000000000     -0.654000000000000
C       4.999000000000000     -5.432000000000000     -2.059000000000000
O       3.773000000000000     -5.017000000000000     -2.709000000000000
C       2.551000000000000     -5.830000000000000     -2.553000000000000
C       1.656000000000000     -5.657000000000000     -3.817000000000000
O       1.290000000000000     -4.317000000000000     -4.119000000000000
C      -0.032000000000000     -3.904000000000000     -3.602000000000000
C      -0.395000000000000     -2.520000000000000     -4.227000000000000
O      -1.580000000000000     -2.032000000000000     -3.386000000000000
C      -1.238000000000000     -0.846000000000000     -2.537000000000000
C      -1.765000000000000      0.494000000000000     -3.087000000000000
O      -1.355000000000000      1.608000000000000     -2.305000000000000
C      -0.313000000000000      2.354000000000000     -2.871000000000000
C       0.230000000000000      3.300000000000000     -1.742000000000000
O       0.340000000000000      2.665000000000000     -0.472000000000000
C       1.015000000000000      3.528000000000000      0.489000000000000
C       2.580000000000000      3.262000000000000      0.473000000000000
O       2.806000000000000      1.991000000000000      1.182000000000000
C       4.179000000000000      1.666000000000000      1.341000000000000
C       4.289000000000000      0.114000000000000      1.625000000000000
O       5.598000000000000     -0.381000000000000      1.317000000000000
C       5.638000000000000     -1.258000000000000      0.131000000000000
C       5.167000000000000     -2.741000000000000      0.410000000000000
H       6.060000000000000     -5.274000000000000     -0.160000000000000
H       4.288000000000000     -4.955000000000000     -0.054000000000000
H       5.049000000000000     -6.527000000000000     -2.031000000000000
H       5.816000000000000     -5.128000000000000     -2.724000000000000
H       2.076000000000000     -5.473000000000000     -1.631000000000000
H       2.865000000000000     -6.881000000000000     -2.533000000000000
H       2.271000000000000     -6.057000000000000     -4.633000000000000
H       0.736000000000000     -6.253000000000000     -3.849000000000000
H      -0.830000000000000     -4.578000000000000     -3.937000000000000
H       0.031000000000000     -3.784000000000000     -2.514000000000000
H      -0.734000000000000     -2.538000000000000     -5.270000000000000
H       0.412000000000000     -1.783000000000000     -4.141000000000000
H      -1.752000000000000     -1.046000000000000     -1.588000000000000
H      -0.189000000000000     -0.827000000000000     -2.216000000000000
H      -2.861000000000000      0.538000000000000     -3.081000000000000
H      -1.632000000000000      0.689000000000000     -4.158000000000000
H      -0.720000000000000      2.933000000000000     -3.709000000000000
H       0.464000000000000      1.685000000000000     -3.261000000000000
H       1.125000000000000      3.805000000000000     -2.124000000000000
H      -0.531000000000000      4.085000000000000     -1.654000000000000
H       0.540000000000000      3.439000000000000      1.474000000000000
H       0.821000000000000      4.558000000000000      0.165000000000000
H       3.076000000000000      4.035000000000000      1.074000000000000
H       3.038000000000000      3.254000000000000     -0.524000000000000
H       4.710000000000000      1.878000000000000      0.405000000000000
H       4.636000000000000      2.305000000000000      2.107000000000000
H       4.141000000000000     -0.031000000000000      2.702000000000000
H       3.575000000000000     -0.436000000000000      1.000000000000000
H       6.671000000000000     -1.320000000000000     -0.233000000000000
H       5.077000000000000     -0.798000000000000     -0.692000000000000
H       4.115000000000000     -2.914000000000000      0.667000000000000
H       5.754000000000000     -3.190000000000000      1.221000000000000
56

O       2.525000000000000     -4.555000000000000      1.157000000000000
C       2.398000000000000     -3.954000000000000     -0.142000000000000
C       1.379000000000000     -4.760000000000000     -1.014000000000000
O      -0.033000000000000     -4.498000000000000     -0.611000000000000
C      -0.907000000000000     -4.512000000000000     -1.686000000000000
C      -2.236000000000000     -3.975000000000000     -1.217000000000000
O      -2.397000000000000     -2.508000000000000     -1.563000000000000
C      -3.709000000000000     -1.882000000000000     -1.484000000000000
C      -3.744000000000000     -1.082000000000000     -0.149000000000000
O      -2.948000000000000      0.139000000000000     -0.270000000000000
C      -2.910000000000000      1.108000000000000      0.862000000000000
C      -1.793000000000000      2.193000000000000      0.612000000000000
O      -1.772000000000000      3.079000000000000      1.781000000000000
C      -1.015000000000000      4.318000000000000      1.706000000000000
C       0.506000000000000      4.094000000000000      2.084000000000000
O       0.636000000000000      3.563000000000000      3.411000000000000
C       1.872000000000000      4.009000000000000      4.094000000000000
C       3.095000000000000      2.980000000000000      3.785000000000000
O       2.567000000000000      1.585000000000000      3.836000000000000
C       3.584000000000000      0.550000000000000      3.766000000000000
C       3.114000000000000     -0.780000000000000      4.430000000000000
O       3.634000000000000     -1.979000000000000      3.737000000000000
C       2.772000000000000     -2.443000000000000      2.698000000000000
C       3.415000000000000     -3.790000000000000      2.078000000000000
H       2.072000000000000     -2.916000000000000     -0.006000000000000
H       3.390000000000000     -3.941000000000000     -0.610000000000000
H       1.673000000000000     -5.779000000000000     -0.732000000000000
H       1.492000000000000     -4.647000000000000     -2.099000000000000
H      -0.981000000000000     -5.515000000000000     -2.124000000000000
H      -0.443000000000000     -3.954000000000000     -2.508000000000000
H      -2.913000000000000     -4.680000000000000     -1.714000000000000
H      -2.324000000000000     -4.123000000000000     -0.134000000000000
H      -3.893000000000000     -1.282000000000000     -2.384000000000000
H      -4.480000000000000     -2.661000000000000     -1.531000000000000
H      -3.300000000000000     -1.731000000000000      0.616000000000000
H      -4.833000000000000     -1.010000000000000     -0.034000000000000
H      -3.865000000000000      1.648000000000000      0.877000000000000
H      -2.717000000000000      0.568000000000000      1.797000000000000
H      -2.231000000000000      2.851000000000000     -0.149000000000000
H      -0.787000000000000      1.816000000000000      0.393000000000000
H      -1.415000000000000      4.945000000000000      2.513000000000000
H      -1.108000000000000      4.955000000000000      0.817000000000000
H       1.142000000000000      3.655000000000000      1.305000000000000
H       0.755000000000000      5.162000000000000      2.129000000000000
H       1.636000000000000      4.062000000000000      5.164000000000000
H       2.170000000000000      5.020000000000000      3.790000000000000
H       3.888000000000000      3.072000000000000      4.538000000000000
H       3.586000000000000      3.187000000000000      2.826000000000000
H       3.779000000000000      0.340000000000000      2.707000000000000
H       4.508000000000000      0.785000000000000      4.308000000000000
H       3.530000000000000     -0.723000000000000      5.443000000000000
H       2.024000000000000     -0.691000000000000      4.521000000000000
H       2.661000000000000     -1.690000000000000      1.908000000000000
H       1.771000000000000     -2.709000000000000      3.061000000000000
H       3.673000000000000     -4.476000000000000      2.894000000000000
H       4.422000000000000     -3.659000000000000      1.661000000000000
56

O      -0.406000000000000      2.389000000000000      7.972000000000000
C       0.409000000000000      1.356000000000000      8.545999999999999
C       1.881000000000000      1.695000000000000      8.032999999999999
O       2.698000000000000      0.534000000000000      8.319000000000001
C       3.852000000000000      0.415000000000000      7.469000000000000
C       4.476000000000000     -0.941000000000000      7.757000000000000
O       3.751000000000000     -2.023000000000000      7.152000000000000
C       4.147000000000000     -2.454000000000000      5.846000000000000
C       3.112000000000000     -3.490000000000000      5.342000000000000
O       2.894000000000000     -3.322000000000000      3.979000000000000
C       1.860000000000000     -4.143000000000000      3.400000000000000
C       1.142000000000000     -3.368000000000000      2.260000000000000
O       0.137000000000000     -4.255000000000000      1.642000000000000
C      -1.117000000000000     -4.283000000000000      2.297000000000000
C      -2.008000000000000     -3.097000000000000      1.722000000000000
O      -3.167000000000000     -3.079000000000000      2.611000000000000
C      -4.191000000000000     -2.131000000000000      2.238000000000000
C      -5.278000000000000     -2.128000000000000      3.366000000000000
O      -4.687000000000000     -1.678000000000000      4.504000000000000
C      -5.024000000000000     -0.410000000000000      5.078000000000000
C      -4.220000000000000     -0.126000000000000      6.359000000000000
O      -3.059000000000000      0.613000000000000      6.008000000000000
C      -2.453000000000000      1.192000000000000      7.181000000000000
C      -1.170000000000000      1.990000000000000      6.802000000000000
H       0.443000000000000      1.426000000000000      9.640000000000001
H       0.080000000000000      0.370000000000000      8.195000000000000
H       2.336000000000000      2.620000000000000      8.410000000000000
H       1.865000000000000      1.778000000000000      6.940000000000000
H       4.455000000000000      1.289000000000000      7.742000000000000
H       3.653000000000000      0.555000000000000      6.399000000000000
H       5.490000000000000     -0.862000000000000      7.348000000000000
H       4.400000000000000     -1.192000000000000      8.823000000000000
H       4.060000000000000     -1.608000000000000      5.154000000000000
H       5.182000000000000     -2.816000000000000      5.885000000000000
H       2.132000000000000     -3.494000000000000      5.835000000000000
H       3.479000000000000     -4.511000000000000      5.505000000000000
H       2.181000000000000     -5.110000000000000      2.993000000000000
H       1.095000000000000     -4.347000000000000      4.159000000000000
H       1.897000000000000     -3.094000000000000      1.513000000000000
H       0.749000000000000     -2.545000000000000      2.870000000000000
H      -0.957000000000000     -4.182000000000000      3.378000000000000
H      -1.666000000000000     -5.198000000000000      2.043000000000000
H      -1.426000000000000     -2.167000000000000      1.747000000000000
H      -2.312000000000000     -3.210000000000000      0.674000000000000
H      -4.571000000000000     -2.333000000000000      1.229000000000000
H      -3.774000000000000     -1.129000000000000      2.079000000000000
H      -5.828000000000000     -3.065000000000000      3.511000000000000
H      -6.056000000000000     -1.404000000000000      3.093000000000000
H      -4.928000000000000      0.380000000000000      4.322000000000000
H      -6.096000000000000     -0.501000000000000      5.290000000000000
H      -4.859000000000000      0.449000000000000      7.040000000000000
H      -3.953000000000000     -1.070000000000000      6.851000000000000
H      -2.255000000000000      0.416000000000000      7.930000000000000
H      -3.071000000000000      1.976000000000000      7.637000000000000
H      -1.510000000000000      2.825000000000000      6.178000000000000
H      -0.661000000000000      1.344000000000000      6.076000000000000
56

O       1.241000000000000      5.391000000000000     -1.075000000000000
C       1.165000000000000      3.975000000000000     -0.738000000000000
C       1.923000000000000      3.188000000000000     -1.869000000000000
O       2.168000000000000      1.873000000000000     -1.366000000000000
C       2.682000000000000      0.898000000000000     -2.334000000000000
C       2.701000000000000     -0.473000000000000     -1.647000000000000
O       1.991000000000000     -1.395000000000000     -2.546000000000000
C       1.912000000000000     -2.772000000000000     -2.269000000000000
C       0.620000000000000     -3.040000000000000     -1.522000000000000
O      -0.537000000000000     -2.705000000000000     -2.259000000000000
C      -1.819000000000000     -2.729000000000000     -1.589000000000000
C      -2.844000000000000     -2.141000000000000     -2.576000000000000
O      -4.102000000000000     -1.956000000000000     -1.830000000000000
C      -4.345000000000000     -0.629000000000000     -1.378000000000000
C      -4.828000000000000      0.211000000000000     -2.572000000000000
O      -5.977000000000000      1.057000000000000     -2.170000000000000
C      -5.683000000000000      2.294000000000000     -1.534000000000000
C      -5.657000000000000      3.455000000000000     -2.556000000000000
O      -4.769000000000000      4.480000000000000     -1.993000000000000
C      -4.355000000000000      5.456000000000000     -2.971000000000000
C      -3.274000000000000      6.502000000000000     -2.519000000000000
O      -1.926000000000000      6.022000000000000     -2.721000000000000
C      -1.020000000000000      6.092000000000000     -1.530000000000000
C       0.377000000000000      5.886000000000000     -2.095000000000000
H       1.645000000000000      3.742000000000000      0.220000000000000
H       0.094000000000000      3.755000000000000     -0.642000000000000
H       2.782000000000000      3.803000000000000     -2.163000000000000
H       1.216000000000000      3.134000000000000     -2.706000000000000
H       3.685000000000000      1.176000000000000     -2.683000000000000
H       2.010000000000000      0.816000000000000     -3.197000000000000
H       3.697000000000000     -0.813000000000000     -1.339000000000000
H       2.183000000000000     -0.416000000000000     -0.681000000000000
H       1.972000000000000     -3.380000000000000     -3.180000000000000
H       2.757000000000000     -3.088000000000000     -1.644000000000000
H       0.688000000000000     -2.479000000000000     -0.581000000000000
H       0.636000000000000     -4.092000000000000     -1.212000000000000
H      -2.053000000000000     -3.795000000000000     -1.473000000000000
H      -1.633000000000000     -2.225000000000000     -0.632000000000000
H      -3.050000000000000     -2.799000000000000     -3.429000000000000
H      -2.430000000000000     -1.173000000000000     -2.882000000000000
H      -3.473000000000000     -0.262000000000000     -0.823000000000000
H      -5.179000000000000     -0.676000000000000     -0.667000000000000
H      -3.995000000000000      0.838000000000000     -2.915000000000000
H      -5.080000000000000     -0.473000000000000     -3.392000000000000
H      -4.760000000000000      2.187000000000000     -0.951000000000000
H      -6.552000000000000      2.449000000000000     -0.883000000000000
H      -6.666000000000000      3.864000000000000     -2.688000000000000
H      -5.160000000000000      3.049000000000000     -3.446000000000000
H      -3.841000000000000      4.964000000000000     -3.806000000000000
H      -5.213000000000000      6.050000000000000     -3.309000000000000
H      -3.372000000000000      7.449000000000000     -3.064000000000000
H      -3.381000000000000      6.834000000000000     -1.479000000000000
H      -1.196000000000000      5.216000000000000     -0.893000000000000
H      -1.035000000000000      7.047000000000000     -0.990000000000000
H       0.710000000000000      6.838000000000000     -2.525000000000000
H       0.234000000000000      5.205000000000000     -2.943000000000000
56

O       6.545000000000000      2.445000000000000     -1.268000000000000
C       6.159000000000000      1.063000000000000     -1.055000000000000
C       6.890000000000000      0.112000000000000     -2.068000000000000
O       7.164000000000000     -1.192000000000000     -1.377000000000000
C       6.020000000000000     -2.052000000000000     -1.540000000000000
C       6.281000000000000     -3.026000000000000     -2.738000000000000
O       5.042000000000000     -3.640000000000000     -3.146000000000000
C       5.086000000000000     -4.198000000000000     -4.509000000000000
C       3.649000000000000     -4.699000000000000     -4.869000000000000
O       2.683000000000000     -3.699000000000000     -5.247000000000000
C       2.546000000000000     -3.489000000000000     -6.618000000000000
C       2.320000000000000     -2.038000000000000     -7.085000000000000
O       0.968000000000000     -1.595000000000000     -6.730000000000000
C       0.812000000000000     -0.547000000000000     -5.756000000000000
C       0.427000000000000      0.735000000000000     -6.595000000000000
O      -0.021000000000000      1.782000000000000     -5.594000000000000
C       1.001000000000000      2.828000000000000     -5.234000000000000
C       0.579000000000000      3.956000000000000     -4.412000000000000
O       1.806000000000000      4.587000000000000     -3.997000000000000
C       1.781000000000000      5.009000000000000     -2.564000000000000
C       3.290000000000000      5.453000000000000     -2.154000000000000
O       3.967000000000000      4.299000000000000     -1.510000000000000
C       5.342000000000000      4.551000000000000     -1.255000000000000
C       5.931000000000000      3.344000000000000     -0.322000000000000
H       6.339000000000000      0.773000000000000     -0.012000000000000
H       5.083000000000000      0.878000000000000     -1.159000000000000
H       7.890000000000000      0.542000000000000     -2.201000000000000
H       6.421000000000000      0.036000000000000     -3.057000000000000
H       5.120000000000000     -1.484000000000000     -1.804000000000000
H       5.857000000000000     -2.540000000000000     -0.572000000000000
H       6.828000000000000     -2.500000000000000     -3.529000000000000
H       6.947000000000000     -3.839000000000000     -2.423000000000000
H       5.422000000000000     -3.429000000000000     -5.215000000000000
H       5.806000000000000     -5.022000000000000     -4.584000000000000
H       3.426000000000000     -5.215000000000000     -3.927000000000000
H       3.704000000000000     -5.456000000000000     -5.660000000000000
H       3.422000000000000     -3.848000000000000     -7.172000000000000
H       1.702000000000000     -4.051000000000000     -7.037000000000000
H       2.429000000000000     -2.037000000000000     -8.176000000000000
H       3.056000000000000     -1.346000000000000     -6.656000000000000
H       1.719000000000000     -0.247000000000000     -5.217000000000000
H      -0.003000000000000     -0.809000000000000     -5.070000000000000
H       1.257000000000000      1.080000000000000     -7.222000000000000
H      -0.447000000000000      0.491000000000000     -7.212000000000000
H       1.449000000000000      3.195000000000000     -6.165000000000000
H       1.811000000000000      2.213000000000000     -4.824000000000000
H      -0.095000000000000      3.666000000000000     -3.596000000000000
H      -0.026000000000000      4.621000000000000     -5.041000000000000
H       1.065000000000000      5.833000000000000     -2.460000000000000
H       1.360000000000000      4.213000000000000     -1.937000000000000
H       3.776000000000000      5.761000000000000     -3.088000000000000
H       3.221000000000000      6.246000000000000     -1.399000000000000
H       5.444000000000000      5.526000000000000     -0.764000000000000
H       5.847000000000000      4.705000000000000     -2.217000000000000
H       5.018000000000000      2.941000000000000      0.134000000000000
H       6.649000000000000      3.759000000000000      0.396000000000000
56

O       6.247000000000000      0.598000000000000     -0.299000000000000
C       6.431000000000000     -0.323000000000000      0.776000000000000
C       4.999000000000000     -0.900000000000000      1.106000000000000
O       4.687000000000000     -2.011000000000000      0.179000000000000
C       3.621000000000000     -2.915000000000000      0.440000000000000
C       2.289000000000000     -2.215000000000000      0.020000000000000
O       1.244000000000000     -3.163000000000000      0.318000000000000
C       0.026000000000000     -2.849000000000000     -0.364000000000000
C       0.124000000000000     -3.301000000000000     -1.811000000000000
O      -0.816000000000000     -2.612000000000000     -2.681000000000000
C      -0.550000000000000     -2.581000000000000     -4.109000000000000
C      -1.307000000000000     -1.472000000000000     -4.831000000000000
O      -0.355000000000000     -0.647000000000000     -5.573000000000000
C      -1.095000000000000      0.414000000000000     -6.276000000000000
C      -0.228000000000000      1.679000000000000     -6.506000000000000
O       0.337000000000000      2.203000000000000     -5.260000000000000
C       1.540000000000000      3.090000000000000     -5.407000000000000
C       2.003000000000000      3.621000000000000     -3.996000000000000
O       3.358000000000000      4.287000000000000     -3.986000000000000
C       4.477000000000000      3.348000000000000     -3.916000000000000
C       5.253000000000000      3.708000000000000     -2.596000000000000
O       6.178000000000000      2.633000000000000     -2.351000000000000
C       6.920000000000000      2.767000000000000     -1.097000000000000
C       6.312000000000000      1.987000000000000      0.037000000000000
H       7.229000000000000     -1.015000000000000      0.481000000000000
H       6.840000000000000      0.159000000000000      1.673000000000000
H       4.324000000000000     -0.046000000000000      0.968000000000000
H       5.214000000000000     -1.275000000000000      2.114000000000000
H       3.620000000000000     -3.166000000000000      1.508000000000000
H       3.897000000000000     -3.807000000000000     -0.135000000000000
H       2.074000000000000     -1.324000000000000      0.624000000000000
H       2.346000000000000     -1.943000000000000     -1.041000000000000
H      -0.819000000000000     -3.331000000000000      0.143000000000000
H      -0.133000000000000     -1.765000000000000     -0.407000000000000
H       0.069000000000000     -4.395000000000000     -1.865000000000000
H       1.139000000000000     -3.160000000000000     -2.205000000000000
H       0.522000000000000     -2.392000000000000     -4.243000000000000
H      -0.809000000000000     -3.547000000000000     -4.559000000000000
H      -1.785000000000000     -0.859000000000000     -4.057000000000000
H      -1.975000000000000     -1.940000000000000     -5.565000000000000
H      -2.023000000000000      0.695000000000000     -5.764000000000000
H      -1.363000000000000     -0.057000000000000     -7.230000000000000
H       0.647000000000000      1.369000000000000     -7.091000000000000
H      -0.902000000000000      2.368000000000000     -7.028000000000000
H       1.228000000000000      3.952000000000000     -6.009000000000000
H       2.338000000000000      2.484000000000000     -5.853000000000000
H       1.952000000000000      2.852000000000000     -3.215000000000000
H       1.244000000000000      4.361000000000000     -3.714000000000000
H       4.248000000000000      2.276000000000000     -3.885000000000000
H       5.173000000000000      3.647000000000000     -4.710000000000000
H       5.731000000000000      4.689000000000000     -2.712000000000000
H       4.499000000000000      3.762000000000000     -1.802000000000000
H       7.005000000000000      3.836000000000000     -0.867000000000000
H       7.939000000000000      2.409000000000000     -1.295000000000000
H       5.283000000000000      2.360000000000000      0.113000000000000
H       6.894000000000000      2.158000000000000      0.951000000000000
56

O       0.135000000000000     -0.001000000000000      9.279000000000000
C       0.306000000000000     -0.888000000000000     10.465000000000000
C       0.677000000000000     -2.259000000000000      9.926000000000000
O      -0.507000000000000     -2.844000000000000      9.218000000000000
C      -0.166000000000000     -3.875000000000000      8.228000000000000
C      -1.466000000000000     -4.281000000000000      7.417000000000000
O      -1.092000000000000     -5.248000000000000      6.433000000000000
C      -1.170000000000000     -4.986000000000000      5.032000000000000
C      -2.696000000000000     -5.207000000000000      4.724000000000000
O      -2.935000000000000     -4.852000000000000      3.372000000000000
C      -4.326000000000000     -4.804000000000000      3.103000000000000
C      -4.494000000000000     -4.185000000000000      1.645000000000000
O      -4.263000000000000     -2.706000000000000      1.678000000000000
C      -5.424000000000000     -1.932000000000000      2.092000000000000
C      -5.145000000000000     -0.424000000000000      1.981000000000000
O      -5.469000000000000      0.120000000000000      3.283000000000000
C      -5.167000000000000      1.529000000000000      3.526000000000000
C      -3.629000000000000      1.786000000000000      3.866000000000000
O      -3.490000000000000      2.623000000000000      5.015000000000000
C      -3.050000000000000      2.068000000000000      6.292000000000000
C      -1.919000000000000      2.945000000000000      6.914000000000000
O      -0.903000000000000      2.037000000000000      7.564000000000000
C      -1.046000000000000      2.038000000000000      9.042999999999999
C       0.200000000000000      1.351000000000000      9.686000000000000
H       1.067000000000000     -0.539000000000000     11.172000000000001
H      -0.623000000000000     -0.879000000000000     11.048000000000000
H       1.049000000000000     -2.912000000000000     10.725000000000000
H       1.571000000000000     -2.229000000000000      9.289999999999999
H       0.148000000000000     -4.751000000000000      8.808999999999999
H       0.617000000000000     -3.518000000000000      7.547000000000000
H      -2.014000000000000     -4.780000000000000      8.225000000000000
H      -1.925000000000000     -3.359000000000000      7.039000000000000
H      -0.878000000000000     -3.958000000000000      4.783000000000000
H      -0.477000000000000     -5.628000000000000      4.474000000000000
H      -3.308000000000000     -4.554000000000000      5.359000000000000
H      -2.998000000000000     -6.242000000000000      4.930000000000000
H      -4.784000000000000     -5.801000000000000      3.083000000000000
H      -4.891000000000000     -4.139000000000000      3.768000000000000
H      -5.495000000000000     -4.376000000000000      1.241000000000000
H      -3.783000000000000     -4.624000000000000      0.933000000000000
H      -5.828000000000000     -2.165000000000000      3.085000000000000
H      -6.177000000000000     -2.158000000000000      1.328000000000000
H      -4.098000000000000     -0.234000000000000      1.714000000000000
H      -5.825000000000000     -0.054000000000000      1.204000000000000
H      -5.737000000000000      1.908000000000000      4.383000000000000
H      -5.490000000000000      2.099000000000000      2.646000000000000
H      -3.097000000000000      2.169000000000000      2.986000000000000
H      -3.094000000000000      0.869000000000000      4.143000000000000
H      -3.896000000000000      2.017000000000000      6.988000000000000
H      -2.641000000000000      1.050000000000000      6.269000000000000
H      -1.521000000000000      3.567000000000000      6.103000000000000
H      -2.275000000000000      3.690000000000000      7.636000000000000
H      -1.978000000000000      1.505000000000000      9.270000000000000
H      -1.138000000000000      3.019000000000000      9.526000000000000
H       0.089000000000000      1.556000000000000     10.757000000000000
H       1.134000000000000      1.799000000000000      9.324000000000000
56

O       3.474000000000000     -0.800000000000000      4.222000000000000
C       3.870000000000000     -2.078000000000000      3.640000000000000
C       3.645000000000000     -3.135000000000000      4.758000000000000
O       2.253000000000000     -3.472000000000000      4.835000000000000
C       1.669000000000000     -4.359000000000000      3.802000000000000
C       0.137000000000000     -4.375000000000000      4.017000000000000
O      -0.477000000000000     -4.942000000000000      2.867000000000000
C      -0.984000000000000     -4.015000000000000      1.944000000000000
C      -2.344000000000000     -4.656000000000000      1.596000000000000
O      -3.174000000000000     -3.742000000000000      0.882000000000000
C      -4.159000000000000     -3.105000000000000      1.654000000000000
C      -4.769000000000000     -1.954000000000000      0.893000000000000
O      -5.226000000000000     -0.842000000000000      1.816000000000000
C      -5.952000000000000      0.163000000000000      1.157000000000000
C      -4.909000000000000      1.163000000000000      0.544000000000000
O      -4.250000000000000      1.835000000000000      1.650000000000000
C      -3.280000000000000      2.842000000000000      1.337000000000000
C      -2.395000000000000      3.110000000000000      2.574000000000000
O      -1.133000000000000      3.799000000000000      2.189000000000000
C      -0.076000000000000      2.915000000000000      1.794000000000000
C       0.857000000000000      2.693000000000000      3.010000000000000
O       2.051000000000000      1.996000000000000      2.711000000000000
C       2.857000000000000      1.545000000000000      3.861000000000000
C       3.693000000000000      0.349000000000000      3.305000000000000
H       3.295000000000000     -2.303000000000000      2.733000000000000
H       4.956000000000000     -2.098000000000000      3.486000000000000
H       4.037000000000000     -2.775000000000000      5.717000000000000
H       4.246000000000000     -3.984000000000000      4.410000000000000
H       2.049000000000000     -5.384000000000000      3.888000000000000
H       1.962000000000000     -3.942000000000000      2.831000000000000
H      -0.080000000000000     -4.953000000000000      4.924000000000000
H      -0.295000000000000     -3.416000000000000      4.328000000000000
H      -0.938000000000000     -2.993000000000000      2.340000000000000
H      -0.410000000000000     -3.960000000000000      1.011000000000000
H      -2.770000000000000     -5.148000000000000      2.479000000000000
H      -2.137000000000000     -5.483000000000000      0.906000000000000
H      -4.926000000000000     -3.809000000000000      2.001000000000000
H      -3.688000000000000     -2.689000000000000      2.553000000000000
H      -5.626000000000000     -2.255000000000000      0.279000000000000
H      -4.057000000000000     -1.485000000000000      0.203000000000000
H      -6.544000000000000      0.659000000000000      1.937000000000000
H      -6.619000000000000     -0.304000000000000      0.422000000000000
H      -4.198000000000000      0.618000000000000     -0.089000000000000
H      -5.558000000000000      1.833000000000000     -0.031000000000000
H      -3.770000000000000      3.786000000000000      1.069000000000000
H      -2.617000000000000      2.442000000000000      0.561000000000000
H      -2.230000000000000      2.145000000000000      3.070000000000000
H      -2.922000000000000      3.807000000000000      3.236000000000000
H      -0.462000000000000      1.960000000000000      1.416000000000000
H       0.544000000000000      3.392000000000000      1.026000000000000
H       1.239000000000000      3.600000000000000      3.496000000000000
H       0.366000000000000      2.045000000000000      3.747000000000000
H       2.179000000000000      1.207000000000000      4.654000000000000
H       3.510000000000000      2.369000000000000      4.177000000000000
H       4.761000000000000      0.522000000000000      3.128000000000000
H       3.313000000000000      0.033000000000000      2.326000000000000
56

O       3.555000000000000     -1.605000000000000      1.952000000000000
C       4.454000000000000     -2.688000000000000      1.832000000000000
C       3.921000000000000     -3.761000000000000      0.853000000000000
O       2.893000000000000     -4.490000000000000      1.577000000000000
C       2.276000000000000     -5.649000000000000      0.928000000000000
C       0.858000000000000     -5.896000000000000      1.583000000000000
O       0.060000000000000     -6.850000000000000      0.767000000000000
C      -0.638000000000000     -6.221000000000000     -0.324000000000000
C      -2.145000000000000     -5.925000000000000      0.136000000000000
O      -2.866000000000000     -5.333000000000000     -0.888000000000000
C      -4.302000000000000     -5.531000000000000     -0.762000000000000
C      -5.058000000000000     -5.224000000000000     -2.077000000000000
O      -4.682000000000000     -3.943000000000000     -2.495000000000000
C      -5.503000000000000     -2.767000000000000     -1.983000000000000
C      -4.838000000000000     -1.487000000000000     -2.483000000000000
O      -4.274000000000000     -0.903000000000000     -1.264000000000000
C      -3.558000000000000      0.308000000000000     -1.577000000000000
C      -2.766000000000000      0.695000000000000     -0.273000000000000
O      -1.772000000000000      1.634000000000000     -0.672000000000000
C      -0.451000000000000      1.188000000000000     -0.980000000000000
C       0.402000000000000      1.223000000000000      0.301000000000000
O       1.595000000000000      0.404000000000000      0.012000000000000
C       2.472000000000000      0.487000000000000      1.162000000000000
C       3.695000000000000     -0.531000000000000      0.990000000000000
H       5.417000000000000     -2.358000000000000      1.423000000000000
H       4.530000000000000     -3.230000000000000      2.782000000000000
H       4.717000000000000     -4.473000000000000      0.601000000000000
H       3.496000000000000     -3.226000000000000     -0.005000000000000
H       2.921000000000000     -6.536000000000000      0.947000000000000
H       2.089000000000000     -5.433000000000000     -0.131000000000000
H       0.893000000000000     -6.148000000000000      2.650000000000000
H       0.344000000000000     -4.928000000000000      1.542000000000000
H      -0.224000000000000     -5.225000000000000     -0.521000000000000
H      -0.507000000000000     -6.794000000000000     -1.250000000000000
H      -2.234000000000000     -5.286000000000000      1.023000000000000
H      -2.496000000000000     -6.933000000000000      0.388000000000000
H      -4.529000000000000     -6.551000000000000     -0.427000000000000
H      -4.696000000000000     -4.896000000000000      0.041000000000000
H      -6.137000000000000     -5.251000000000000     -1.883000000000000
H      -4.801000000000000     -5.965000000000000     -2.844000000000000
H      -5.578000000000000     -2.711000000000000     -0.890000000000000
H      -6.504000000000000     -2.811000000000000     -2.429000000000000
H      -3.990000000000000     -1.753000000000000     -3.127000000000000
H      -5.602000000000000     -0.841000000000000     -2.932000000000000
H      -4.241000000000000      1.120000000000000     -1.856000000000000
H      -2.802000000000000      0.062000000000000     -2.332000000000000
H      -2.349000000000000     -0.234000000000000      0.133000000000000
H      -3.496000000000000      1.211000000000000      0.362000000000000
H      -0.500000000000000      0.238000000000000     -1.526000000000000
H       0.050000000000000      1.977000000000000     -1.554000000000000
H       0.599000000000000      2.258000000000000      0.605000000000000
H      -0.098000000000000      0.694000000000000      1.121000000000000
H       1.964000000000000      0.276000000000000      2.112000000000000
H       2.803000000000000      1.510000000000000      1.379000000000000
H       4.620000000000000      0.008000000000000      1.227000000000000
H       3.771000000000000     -0.899000000000000     -0.041000000000000
56

O       2.854000000000000      1.072000000000000      2.286000000000000
C       3.900000000000000      0.157000000000000      2.732000000000000
C       3.398000000000000     -1.332000000000000      2.404000000000000
O       2.233000000000000     -1.733000000000000      3.159000000000000
C       1.713000000000000     -3.142000000000000      3.053000000000000
C       0.459000000000000     -3.201000000000000      2.188000000000000
O      -0.039000000000000     -4.586000000000000      2.166000000000000
C      -1.066000000000000     -4.859000000000000      1.139000000000000
C      -2.428000000000000     -4.529000000000000      1.729000000000000
O      -3.316000000000000     -4.124000000000000      0.689000000000000
C      -4.770000000000000     -4.114000000000000      1.017000000000000
C      -5.594000000000000     -3.509000000000000     -0.136000000000000
O      -5.510000000000000     -2.066000000000000     -0.039000000000000
C      -5.907000000000000     -1.428000000000000     -1.279000000000000
C      -5.170000000000000     -0.124000000000000     -1.324000000000000
O      -3.896000000000000     -0.353000000000000     -1.870000000000000
C      -3.341000000000000      0.715000000000000     -2.704000000000000
C      -2.943000000000000      1.943000000000000     -1.868000000000000
O      -1.867000000000000      2.721000000000000     -2.426000000000000
C      -0.577000000000000      2.201000000000000     -1.968000000000000
C      -0.012000000000000      2.846000000000000     -0.653000000000000
O       1.346000000000000      2.410000000000000     -0.620000000000000
C       1.874000000000000      2.752000000000000      0.707000000000000
C       3.100000000000000      1.924000000000000      1.152000000000000
H       4.870000000000000      0.182000000000000      2.220000000000000
H       3.996000000000000      0.253000000000000      3.820000000000000
H       4.237000000000000     -2.018000000000000      2.574000000000000
H       3.099000000000000     -1.446000000000000      1.355000000000000
H       1.318000000000000     -3.427000000000000      4.036000000000000
H       2.542000000000000     -3.798000000000000      2.761000000000000
H      -0.309000000000000     -2.544000000000000      2.614000000000000
H       0.751000000000000     -2.898000000000000      1.175000000000000
H      -0.962000000000000     -4.244000000000000      0.236000000000000
H      -1.192000000000000     -5.891000000000000      0.790000000000000
H      -2.337000000000000     -3.717000000000000      2.461000000000000
H      -2.703000000000000     -5.453000000000000      2.253000000000000
H      -5.078000000000000     -5.160000000000000      1.138000000000000
H      -5.001000000000000     -3.523000000000000      1.911000000000000
H      -6.616000000000000     -3.908000000000000     -0.130000000000000
H      -5.172000000000000     -3.839000000000000     -1.094000000000000
H      -6.999000000000000     -1.328000000000000     -1.299000000000000
H      -5.525000000000000     -1.933000000000000     -2.176000000000000
H      -5.719000000000000      0.500000000000000     -2.039000000000000
H      -5.093000000000000      0.273000000000000     -0.304000000000000
H      -4.038000000000000      1.024000000000000     -3.492000000000000
H      -2.522000000000000      0.338000000000000     -3.330000000000000
H      -2.765000000000000      1.592000000000000     -0.844000000000000
H      -3.787000000000000      2.615000000000000     -1.667000000000000
H      -0.517000000000000      1.106000000000000     -1.928000000000000
H       0.176000000000000      2.495000000000000     -2.711000000000000
H       0.045000000000000      3.941000000000000     -0.629000000000000
H      -0.591000000000000      2.519000000000000      0.219000000000000
H       1.066000000000000      2.544000000000000      1.419000000000000
H       2.001000000000000      3.841000000000000      0.727000000000000
H       3.985000000000000      2.551000000000000      1.315000000000000
H       3.325000000000000      1.306000000000000      0.274000000000000
56

O       3.042000000000000     -6.874000000000000     -3.044000000000000
C       2.333000000000000     -7.822000000000000     -2.333000000000000
C       1.341000000000000     -8.634000000000000     -3.189000000000000
O       0.067000000000000     -8.004000000000000     -3.098000000000000
C      -0.978000000000000     -8.526000000000000     -4.055000000000000
C      -2.030000000000000     -7.345000000000000     -4.397000000000000
O      -2.493000000000000     -7.574000000000000     -5.804000000000000
C      -1.877000000000000     -6.670000000000000     -6.780000000000000
C      -2.591000000000000     -5.309000000000000     -6.792000000000000
O      -2.210000000000000     -4.719000000000000     -8.124000000000001
C      -3.088000000000000     -3.621000000000000     -8.522000000000000
C      -2.235000000000000     -2.469000000000000     -9.143000000000001
O      -1.944000000000000     -1.492000000000000     -8.083000000000000
C      -1.382000000000000     -0.314000000000000     -8.585000000000001
C      -0.322000000000000      0.236000000000000     -7.677000000000000
O       0.909000000000000     -0.444000000000000     -7.832000000000000
C       1.837000000000000     -0.327000000000000     -6.736000000000000
C       2.943000000000000     -1.212000000000000     -7.205000000000000
O       3.934000000000000     -1.429000000000000     -6.166000000000000
C       3.698000000000000     -2.421000000000000     -5.097000000000000
C       4.986000000000000     -3.201000000000000     -4.690000000000000
O       4.597000000000000     -4.528000000000000     -4.182000000000000
C       4.196000000000000     -4.669000000000000     -2.787000000000000
C       4.166000000000000     -6.224000000000000     -2.377000000000000
H       2.934000000000000     -8.609999999999999     -1.862000000000000
H       1.697000000000000     -7.248000000000000     -1.649000000000000
H       1.135000000000000     -9.648999999999999     -2.826000000000000
H       1.683000000000000     -8.675000000000001     -4.231000000000000
H      -1.572000000000000     -9.365000000000000     -3.672000000000000
H      -0.559000000000000     -8.882000000000000     -5.005000000000000
H      -2.871000000000000     -7.442000000000000     -3.700000000000000
H      -1.594000000000000     -6.351000000000000     -4.242000000000000
H      -0.786000000000000     -6.650000000000000     -6.671000000000000
H      -2.227000000000000     -7.097000000000000     -7.728000000000000
H      -2.264000000000000     -4.649000000000000     -5.979000000000000
H      -3.664000000000000     -5.519000000000000     -6.883000000000000
H      -3.842000000000000     -3.961000000000000     -9.244000000000000
H      -3.668000000000000     -3.205000000000000     -7.689000000000000
H      -2.757000000000000     -2.006000000000000     -9.990000000000000
H      -1.310000000000000     -2.970000000000000     -9.455000000000000
H      -2.170000000000000      0.432000000000000     -8.747999999999999
H      -0.826000000000000     -0.496000000000000     -9.513000000000000
H      -0.149000000000000      1.316000000000000     -7.755000000000000
H      -0.709000000000000      0.016000000000000     -6.675000000000000
H       1.380000000000000     -0.587000000000000     -5.773000000000000
H       2.229000000000000      0.697000000000000     -6.710000000000000
H       3.469000000000000     -0.833000000000000     -8.089000000000000
H       2.520000000000000     -2.165000000000000     -7.547000000000000
H       3.375000000000000     -1.886000000000000     -4.196000000000000
H       2.902000000000000     -3.111000000000000     -5.404000000000000
H       5.596000000000000     -3.229000000000000     -5.601000000000000
H       5.559000000000000     -2.596000000000000     -3.975000000000000
H       3.188000000000000     -4.267000000000000     -2.631000000000000
H       4.920000000000000     -4.115000000000000     -2.175000000000000
H       4.094000000000000     -6.168000000000000     -1.284000000000000
H       5.151000000000000     -6.654000000000000     -2.595000000000000
56

O      -0.957000000000000     -6.751000000000000      0.681000000000000
C      -2.268000000000000     -6.954000000000000      1.182000000000000
C      -3.194000000000000     -7.422000000000000     -0.001000000000000
O      -4.062000000000000     -6.359000000000000     -0.439000000000000
C      -4.038000000000000     -5.925000000000000     -1.785000000000000
C      -4.711000000000000     -4.561000000000000     -1.993000000000000
O      -4.719000000000000     -4.296000000000000     -3.388000000000000
C      -3.640000000000000     -3.446000000000000     -3.841000000000000
C      -3.961000000000000     -2.799000000000000     -5.196000000000000
O      -2.989000000000000     -1.671000000000000     -5.393000000000000
C      -3.099000000000000     -0.537000000000000     -4.436000000000000
C      -2.107000000000000      0.593000000000000     -4.981000000000000
O      -0.755000000000000      0.061000000000000     -5.152000000000000
C       0.250000000000000      1.022000000000000     -5.219000000000000
C       0.906000000000000      1.455000000000000     -3.840000000000000
O       1.783000000000000      0.430000000000000     -3.336000000000000
C       2.161000000000000      0.638000000000000     -1.907000000000000
C       2.575000000000000     -0.720000000000000     -1.331000000000000
O       1.647000000000000     -0.979000000000000     -0.203000000000000
C       2.108000000000000     -2.246000000000000      0.302000000000000
C       1.025000000000000     -2.829000000000000      1.216000000000000
O       1.057000000000000     -4.273000000000000      1.230000000000000
C       0.038000000000000     -4.972000000000000      2.023000000000000
C       0.062000000000000     -6.500000000000000      1.704000000000000
H      -2.262000000000000     -7.807000000000000      1.872000000000000
H      -2.610000000000000     -6.005000000000000      1.614000000000000
H      -3.877000000000000     -8.247999999999999      0.234000000000000
H      -2.514000000000000     -7.825000000000000     -0.761000000000000
H      -4.389000000000000     -6.633000000000000     -2.547000000000000
H      -3.012000000000000     -5.673000000000000     -2.079000000000000
H      -5.771000000000000     -4.674000000000000     -1.735000000000000
H      -4.254000000000000     -3.701000000000000     -1.487000000000000
H      -3.590000000000000     -2.594000000000000     -3.152000000000000
H      -2.690000000000000     -3.989000000000000     -3.767000000000000
H      -4.985000000000000     -2.409000000000000     -5.233000000000000
H      -3.795000000000000     -3.524000000000000     -6.003000000000000
H      -4.095000000000000     -0.078000000000000     -4.408000000000000
H      -2.798000000000000     -0.881000000000000     -3.439000000000000
H      -2.112000000000000      1.477000000000000     -4.332000000000000
H      -2.413000000000000      0.860000000000000     -6.000000000000000
H      -0.004000000000000      1.919000000000000     -5.797000000000000
H       1.017000000000000      0.687000000000000     -5.928000000000000
H       1.409000000000000      2.424000000000000     -3.940000000000000
H       0.137000000000000      1.686000000000000     -3.093000000000000
H       1.224000000000000      0.922000000000000     -1.412000000000000
H       2.964000000000000      1.384000000000000     -1.873000000000000
H       3.634000000000000     -0.644000000000000     -1.057000000000000
H       2.417000000000000     -1.408000000000000     -2.171000000000000
H       2.228000000000000     -2.836000000000000     -0.615000000000000
H       3.083000000000000     -2.112000000000000      0.788000000000000
H       1.104000000000000     -2.561000000000000      2.277000000000000
H       0.018000000000000     -2.463000000000000      0.983000000000000
H      -0.983000000000000     -4.682000000000000      1.748000000000000
H       0.269000000000000     -4.858000000000000      3.089000000000000
H      -0.192000000000000     -7.045000000000000      2.621000000000000
H       1.013000000000000     -6.888000000000000      1.317000000000000
56

O      -2.910000000000000     -7.413000000000000     -7.784000000000000
C      -1.808000000000000     -6.615000000000000     -8.308000000000000
C      -2.270000000000000     -5.111000000000000     -8.154999999999999
O      -1.176000000000000     -4.209000000000000     -8.278000000000000
C      -0.776000000000000     -3.920000000000000     -9.651000000000000
C       0.204000000000000     -2.745000000000000     -9.644000000000000
O       1.491000000000000     -3.058000000000000     -9.204000000000001
C       2.621000000000000     -2.152000000000000     -9.430999999999999
C       3.967000000000000     -2.886000000000000     -9.728000000000000
O       4.775000000000000     -2.833000000000000     -8.494999999999999
C       6.035000000000000     -3.636000000000000     -8.661000000000000
C       5.801000000000000     -5.091000000000000     -8.319000000000001
O       5.719000000000000     -5.156000000000000     -6.855000000000000
C       4.999000000000000     -6.376000000000000     -6.457000000000000
C       5.078000000000000     -6.455000000000000     -4.965000000000000
O       4.318000000000000     -7.550000000000000     -4.506000000000000
C       3.190000000000000     -7.204000000000000     -3.691000000000000
C       2.415000000000000     -8.490000000000000     -3.552000000000000
O       1.005000000000000     -8.173999999999999     -3.199000000000000
C       0.143000000000000     -9.238000000000000     -3.567000000000000
C      -1.284000000000000     -8.664999999999999     -3.619000000000000
O      -2.001000000000000     -9.266000000000000     -4.772000000000000
C      -1.775000000000000     -8.638999999999999     -6.010000000000000
C      -2.901000000000000     -7.601000000000000     -6.329000000000000
H      -0.831000000000000     -6.778000000000000     -7.837000000000000
H      -1.655000000000000     -6.800000000000000     -9.378000000000000
H      -2.654000000000000     -4.995000000000000     -7.134000000000000
H      -3.136000000000000     -4.963000000000000     -8.811999999999999
H      -1.623000000000000     -3.650000000000000    -10.294000000000000
H      -0.365000000000000     -4.836000000000000    -10.093000000000000
H       0.308000000000000     -2.456000000000000    -10.696999999999999
H      -0.176000000000000     -1.961000000000000     -8.978000000000000
H       2.389000000000000     -1.502000000000000    -10.284000000000001
H       2.753000000000000     -1.462000000000000     -8.587999999999999
H       4.410000000000000     -2.268000000000000    -10.519000000000000
H       3.802000000000000     -3.897000000000000    -10.122000000000000
H       6.406000000000000     -3.583000000000000     -9.692000000000000
H       6.831000000000000     -3.324000000000000     -7.972000000000000
H       6.685000000000000     -5.643000000000000     -8.661000000000000
H       4.897000000000000     -5.477000000000000     -8.805999999999999
H       5.438000000000000     -7.237000000000000     -6.976000000000000
H       3.963000000000000     -6.185000000000000     -6.763000000000000
H       6.067000000000000     -6.829000000000000     -4.672000000000000
H       4.833000000000000     -5.490000000000000     -4.504000000000000
H       2.541000000000000     -6.481000000000000     -4.201000000000000
H       3.597000000000000     -6.895000000000000     -2.720000000000000
H       2.847000000000000     -9.230000000000000     -2.866000000000000
H       2.372000000000000     -8.914999999999999     -4.563000000000000
H       0.539000000000000     -9.694000000000001     -4.483000000000000
H       0.095000000000000     -9.942000000000000     -2.727000000000000
H      -1.947000000000000     -8.803000000000001     -2.756000000000000
H      -1.144000000000000     -7.600000000000000     -3.839000000000000
H      -1.725000000000000     -9.398000000000000     -6.800000000000000
H      -0.803000000000000     -8.145000000000000     -6.126000000000000
H      -2.580000000000000     -6.651000000000000     -5.886000000000000
H      -3.878000000000000     -7.844000000000000     -5.895000000000000
56

O       6.806000000000000     -4.264000000000000     -5.690000000000000
C       6.668000000000000     -3.239000000000000     -4.622000000000000
C       7.673000000000000     -3.615000000000000     -3.592000000000000
O       7.079000000000000     -4.371000000000000     -2.530000000000000
C       8.058999999999999     -5.161000000000000     -1.752000000000000
C       7.344000000000000     -5.568000000000000     -0.433000000000000
O       6.812000000000000     -6.884000000000000     -0.585000000000000
C       6.810000000000000     -7.835000000000000      0.521000000000000
C       5.357000000000000     -8.173999999999999      0.831000000000000
O       4.760000000000000     -8.853000000000000     -0.285000000000000
C       3.288000000000000     -8.925000000000001     -0.330000000000000
C       2.878000000000000     -9.464000000000000     -1.807000000000000
O       1.453000000000000     -9.441000000000001     -1.890000000000000
C       0.973000000000000     -8.345000000000001     -2.698000000000000
C       0.321000000000000     -8.800000000000001     -3.974000000000000
O      -0.301000000000000     -7.661000000000000     -4.589000000000000
C       0.555000000000000     -6.819000000000000     -5.415000000000000
C       0.462000000000000     -7.229000000000000     -6.857000000000000
O       1.115000000000000     -6.194000000000000     -7.610000000000000
C       2.469000000000000     -6.429000000000000     -8.042000000000000
C       3.126000000000000     -5.041000000000000     -8.129000000000000
O       4.530000000000000     -5.209000000000000     -8.476000000000001
C       5.405000000000000     -5.506000000000000     -7.369000000000000
C       5.869000000000000     -4.110000000000000     -6.768000000000000
H       6.921000000000000     -2.206000000000000     -4.892000000000000
H       5.658000000000000     -3.180000000000000     -4.198000000000000
H       7.939000000000000     -2.703000000000000     -3.043000000000000
H       8.587999999999999     -4.022000000000000     -4.040000000000000
H       8.935000000000000     -4.555000000000000     -1.488000000000000
H       8.374000000000001     -6.069000000000000     -2.281000000000000
H       7.998000000000000     -5.525000000000000      0.446000000000000
H       6.467000000000000     -4.957000000000000     -0.186000000000000
H       7.377000000000000     -8.744000000000000      0.286000000000000
H       7.361000000000000     -7.367000000000000      1.347000000000000
H       4.922000000000000     -7.198000000000000      1.079000000000000
H       5.129000000000000     -8.757000000000000      1.732000000000000
H       3.018000000000000     -9.622999999999999      0.473000000000000
H       2.828000000000000     -7.961000000000000     -0.080000000000000
H       3.235000000000000    -10.487000000000000     -1.980000000000000
H       3.365000000000000     -8.831000000000000     -2.559000000000000
H       1.745000000000000     -7.593000000000000     -2.903000000000000
H       0.203000000000000     -7.815000000000000     -2.123000000000000
H       0.990000000000000     -9.448000000000000     -4.554000000000000
H      -0.485000000000000     -9.440000000000000     -3.594000000000000
H       1.598000000000000     -7.109000000000000     -5.240000000000000
H       0.544000000000000     -5.729000000000000     -5.293000000000000
H      -0.627000000000000     -7.139000000000000     -6.961000000000000
H       0.843000000000000     -8.201000000000001     -7.195000000000000
H       2.994000000000000     -7.076000000000000     -7.328000000000000
H       2.470000000000000     -6.950000000000000     -9.007000000000000
H       2.579000000000000     -4.567000000000000     -8.954000000000001
H       3.016000000000000     -4.482000000000000     -7.191000000000000
H       6.209000000000000     -6.112000000000000     -7.804000000000000
H       4.933000000000000     -6.117000000000000     -6.589000000000000
H       4.932000000000000     -3.616000000000000     -6.483000000000000
H       6.256000000000000     -3.481000000000000     -7.578000000000000
56

O       2.995000000000000     -9.013000000000000      2.183000000000000
C       3.616000000000000     -9.032999999999999      3.507000000000000
C       2.822000000000000     -9.855000000000000      4.544000000000000
O       1.680000000000000     -9.132000000000000      4.966000000000000
C       0.504000000000000     -9.845000000000001      5.400000000000000
C      -0.636000000000000     -8.946999999999999      5.936000000000000
O      -1.236000000000000     -8.176000000000000      4.859000000000000
C      -2.672000000000000     -8.054000000000000      4.826000000000000
C      -3.068000000000000     -7.297000000000000      3.535000000000000
O      -4.432000000000000     -7.623000000000000      3.174000000000000
C      -4.948000000000000     -7.166000000000000      1.930000000000000
C      -4.820000000000000     -8.205000000000000      0.801000000000000
O      -5.543000000000000     -7.661000000000000     -0.299000000000000
C      -4.748000000000000     -7.221000000000000     -1.372000000000000
C      -4.158000000000000     -8.348000000000001     -2.274000000000000
O      -3.663000000000000     -7.860000000000000     -3.498000000000000
C      -2.341000000000000     -7.219000000000000     -3.540000000000000
C      -1.313000000000000     -8.345000000000001     -3.766000000000000
O      -0.026000000000000     -7.858000000000000     -3.398000000000000
C       0.640000000000000     -8.731000000000000     -2.546000000000000
C       1.684000000000000     -7.849000000000000     -1.915000000000000
O       2.127000000000000     -8.490000000000000     -0.675000000000000
C       3.214000000000000     -7.809000000000000      0.007000000000000
C       3.903000000000000     -8.744999999999999      1.166000000000000
H       4.656000000000000     -9.372999999999999      3.589000000000000
H       3.611000000000000     -7.983000000000000      3.822000000000000
H       3.497000000000000    -10.173999999999999      5.348000000000000
H       2.590000000000000    -10.744999999999999      3.945000000000000
H       0.722000000000000    -10.569000000000001      6.195000000000000
H       0.162000000000000    -10.510000000000000      4.597000000000000
H      -1.360000000000000     -9.586000000000000      6.458000000000000
H      -0.216000000000000     -8.207000000000001      6.629000000000000
H      -3.178000000000000     -9.020000000000000      4.708000000000000
H      -3.006000000000000     -7.484000000000000      5.702000000000000
H      -2.385000000000000     -7.503000000000000      2.702000000000000
H      -2.984000000000000     -6.232000000000000      3.786000000000000
H      -6.031000000000000     -6.992000000000000      1.947000000000000
H      -4.444000000000000     -6.237000000000000      1.636000000000000
H      -5.353000000000000     -9.138000000000000      1.023000000000000
H      -3.818000000000000     -8.472000000000000      0.443000000000000
H      -3.919000000000000     -6.595000000000000     -1.019000000000000
H      -5.326000000000000     -6.645000000000000     -2.106000000000000
H      -3.366000000000000     -8.824000000000000     -1.683000000000000
H      -4.959000000000000     -9.092000000000001     -2.370000000000000
H      -2.139000000000000     -6.637000000000000     -2.632000000000000
H      -2.285000000000000     -6.484000000000000     -4.353000000000000
H      -1.389000000000000     -8.635000000000000     -4.821000000000000
H      -1.529000000000000     -9.164999999999999     -3.069000000000000
H       0.043000000000000     -9.167999999999999     -1.736000000000000
H       1.166000000000000     -9.550000000000001     -3.052000000000000
H       2.513000000000000     -7.666000000000000     -2.610000000000000
H       1.242000000000000     -6.857000000000000     -1.759000000000000
H       2.763000000000000     -6.956000000000000      0.529000000000000
H       3.931000000000000     -7.472000000000000     -0.752000000000000
H       4.878000000000000     -8.420999999999999      1.549000000000000
H       4.054000000000000     -9.741000000000000      0.732000000000000
56

O       1.479000000000000     -8.398000000000000      1.610000000000000
C       2.104000000000000     -8.992000000000001      2.831000000000000
C       1.659000000000000     -8.226000000000001      4.102000000000000
O       0.294000000000000     -8.516999999999999      4.431000000000000
C      -0.267000000000000     -7.721000000000000      5.523000000000000
C      -1.341000000000000     -8.529999999999999      6.317000000000000
O      -2.596000000000000     -7.932000000000000      6.018000000000000
C      -3.151000000000000     -8.444000000000001      4.790000000000000
C      -4.126000000000000     -9.625000000000000      5.131000000000000
O      -5.465000000000000     -9.117000000000001      4.996000000000000
C      -6.099000000000000     -9.596000000000000      3.803000000000000
C      -6.617000000000000    -11.022000000000000      3.880000000000000
O      -7.018000000000000    -11.507000000000000      2.638000000000000
C      -5.866000000000000    -11.997999999999999      1.799000000000000
C      -6.513000000000000    -12.247999999999999      0.445000000000000
O      -5.455000000000000    -12.391999999999999     -0.513000000000000
C      -4.877000000000000    -11.247999999999999     -1.245000000000000
C      -3.731000000000000    -11.744999999999999     -2.106000000000000
O      -2.416000000000000    -11.574999999999999     -1.367000000000000
C      -1.439000000000000    -11.086000000000000     -2.267000000000000
C      -0.040000000000000    -11.055000000000000     -1.634000000000000
O       0.132000000000000     -9.941000000000001     -0.693000000000000
C       1.506000000000000    -10.145000000000000     -0.068000000000000
C       2.063000000000000     -8.730000000000000      0.357000000000000
H       1.744000000000000    -10.028000000000000      2.828000000000000
H       3.200000000000000     -8.958000000000000      2.844000000000000
H       1.834000000000000     -7.151000000000000      3.970000000000000
H       2.333000000000000     -8.391000000000000      4.951000000000000
H      -0.587000000000000     -6.757000000000000      5.109000000000000
H       0.545000000000000     -7.459000000000000      6.212000000000000
H      -1.372000000000000     -9.593999999999999      6.051000000000000
H      -1.178000000000000     -8.502000000000001      7.401000000000000
H      -3.769000000000000     -7.732000000000000      4.228000000000000
H      -2.392000000000000     -8.743000000000000      4.056000000000000
H      -3.972000000000000     -9.994000000000000      6.153000000000000
H      -4.064000000000000    -10.555999999999999      4.553000000000000
H      -6.973000000000000     -9.023999999999999      3.467000000000000
H      -5.323000000000000     -9.538000000000000      3.029000000000000
H      -7.394000000000000    -11.087999999999999      4.652000000000000
H      -5.787000000000000    -11.651000000000000      4.225000000000000
H      -5.371000000000000    -12.901999999999999      2.176000000000000
H      -5.047000000000000    -11.273999999999999      1.700000000000000
H      -7.092000000000000    -13.180000000000000      0.446000000000000
H      -7.141000000000000    -11.409000000000001      0.122000000000000
H      -4.500000000000000    -10.449000000000000     -0.596000000000000
H      -5.686000000000000    -10.728999999999999     -1.773000000000000
H      -3.685000000000000    -11.195000000000000     -3.054000000000000
H      -3.882000000000000    -12.811999999999999     -2.311000000000000
H      -1.463000000000000    -11.707000000000001     -3.171000000000000
H      -1.648000000000000    -10.045999999999999     -2.544000000000000
H       0.285000000000000    -12.026000000000000     -1.239000000000000
H       0.638000000000000    -10.923000000000000     -2.486000000000000
H       2.224000000000000    -10.567000000000000     -0.782000000000000
H       1.419000000000000    -10.868000000000000      0.752000000000000
H       1.632000000000000     -8.007999999999999     -0.347000000000000
H       3.153000000000000     -8.605000000000000      0.352000000000000
56

O      -1.175000000000000    -10.239000000000001      7.255000000000000
C      -2.105000000000000    -10.420999999999999      8.279999999999999
C      -3.374000000000000    -11.016000000000000      7.736000000000000
O      -3.217000000000000    -12.348000000000001      7.201000000000000
C      -4.496000000000000    -13.009000000000000      6.750000000000000
C      -4.735000000000000    -12.763999999999999      5.179000000000000
O      -3.691000000000000    -13.358000000000001      4.460000000000000
C      -3.927000000000000    -14.718000000000000      4.159000000000000
C      -4.484000000000000    -14.817000000000000      2.731000000000000
O      -3.395000000000000    -14.754000000000000      1.814000000000000
C      -3.191000000000000    -13.406000000000001      1.304000000000000
C      -3.572000000000000    -13.547000000000001     -0.178000000000000
O      -3.880000000000000    -12.228000000000000     -0.684000000000000
C      -2.816000000000000    -11.339000000000000     -0.999000000000000
C      -2.950000000000000    -10.068000000000000     -0.136000000000000
O      -1.648000000000000     -9.428000000000001     -0.128000000000000
C      -1.690000000000000     -7.983000000000000     -0.109000000000000
C      -0.437000000000000     -7.396000000000000      0.548000000000000
O      -0.351000000000000     -7.762000000000000      1.972000000000000
C       0.788000000000000     -7.056000000000000      2.627000000000000
C       1.208000000000000     -8.007000000000000      3.839000000000000
O       0.316000000000000     -7.881000000000000      4.910000000000000
C       0.396000000000000     -8.847000000000000      5.957000000000000
C      -0.981000000000000     -8.880000000000001      6.709000000000000
H      -1.649000000000000    -11.074999999999999      9.032999999999999
H      -2.281000000000000     -9.504000000000000      8.855000000000000
H      -3.803000000000000    -10.361000000000001      6.967000000000000
H      -4.051000000000000    -11.147000000000000      8.589000000000000
H      -5.390000000000000    -12.730000000000000      7.321000000000000
H      -4.317000000000000    -14.082000000000001      6.893000000000000
H      -5.717000000000000    -13.065000000000000      4.793000000000000
H      -4.735000000000000    -11.675000000000001      5.043000000000000
H      -2.989000000000000    -15.243000000000000      4.378000000000000
H      -4.720000000000000    -15.146000000000001      4.784000000000000
H      -5.129000000000000    -13.929000000000000      2.710000000000000
H      -5.001000000000000    -15.784000000000001      2.691000000000000
H      -3.829000000000000    -12.718000000000000      1.872000000000000
H      -2.181000000000000    -12.987000000000000      1.392000000000000
H      -4.414000000000000    -14.231000000000000     -0.338000000000000
H      -2.748000000000000    -13.970000000000001     -0.766000000000000
H      -2.758000000000000    -11.178000000000001     -2.082000000000000
H      -1.856000000000000    -11.800000000000001     -0.738000000000000
H      -3.786000000000000     -9.440000000000000     -0.471000000000000
H      -3.263000000000000    -10.380000000000001      0.868000000000000
H      -2.552000000000000     -7.722000000000000      0.518000000000000
H      -1.741000000000000     -7.504000000000000     -1.094000000000000
H      -0.513000000000000     -6.302000000000000      0.564000000000000
H       0.493000000000000     -7.642000000000000      0.021000000000000
H       1.626000000000000     -6.829000000000000      1.955000000000000
H       0.441000000000000     -6.076000000000000      2.978000000000000
H       1.127000000000000     -9.022000000000000      3.431000000000000
H       2.270000000000000     -7.842000000000000      4.061000000000000
H       1.219000000000000     -8.605000000000000      6.641000000000000
H       0.670000000000000     -9.832000000000001      5.558000000000000
H      -1.886000000000000     -8.672000000000001      6.126000000000000
H      -0.881000000000000     -8.148000000000000      7.521000000000000
56

O      -1.534000000000000     -7.779000000000000      4.164000000000000
C      -1.608000000000000     -6.795000000000000      5.273000000000000
C      -2.584000000000000     -7.234000000000000      6.433000000000000
O      -3.927000000000000     -7.305000000000000      6.022000000000000
C      -4.955000000000000     -6.971000000000000      7.005000000000000
C      -5.391000000000000     -8.343999999999999      7.610000000000000
O      -5.985000000000000     -9.238000000000000      6.585000000000000
C      -6.590000000000000    -10.436000000000000      7.140000000000000
C      -8.109999999999999    -10.204000000000001      7.323000000000000
O      -8.787000000000001    -10.605000000000000      6.174000000000000
C      -8.919000000000000     -9.740000000000000      5.037000000000000
C      -9.618000000000000    -10.534000000000001      3.889000000000000
O      -8.926000000000000    -11.782000000000000      3.554000000000000
C      -7.748000000000000    -11.574000000000000      2.808000000000000
C      -7.825000000000000    -12.259000000000000      1.443000000000000
O      -6.576000000000000    -12.170000000000000      0.865000000000000
C      -6.197000000000000    -11.122000000000000     -0.079000000000000
C      -4.905000000000000    -11.550000000000001     -0.892000000000000
O      -3.820000000000000    -11.423999999999999     -0.013000000000000
C      -3.257000000000000    -10.135999999999999      0.087000000000000
C      -1.888000000000000    -10.228999999999999      0.816000000000000
O      -1.575000000000000     -8.978000000000000      1.426000000000000
C      -0.620000000000000     -9.025000000000000      2.500000000000000
C      -0.612000000000000     -7.602000000000000      3.077000000000000
H      -0.596000000000000     -6.610000000000000      5.653000000000000
H      -1.888000000000000     -5.817000000000000      4.862000000000000
H      -2.525000000000000     -6.473000000000000      7.220000000000000
H      -2.320000000000000     -8.223000000000001      6.827000000000000
H      -5.767000000000000     -6.550000000000000      6.399000000000000
H      -4.554000000000000     -6.295000000000000      7.770000000000000
H      -4.537000000000000     -8.839000000000000      8.087999999999999
H      -6.115000000000000     -8.220000000000001      8.425000000000001
H      -6.348000000000000    -11.294000000000000      6.500000000000000
H      -6.225000000000000    -10.516000000000000      8.170999999999999
H      -8.352000000000000     -9.194000000000001      7.675000000000000
H      -8.470000000000001    -10.818000000000000      8.157999999999999
H      -9.554000000000000     -8.872000000000000      5.254000000000000
H      -7.887000000000000     -9.532000000000000      4.730000000000000
H      -9.742000000000001     -9.971000000000000      2.956000000000000
H     -10.641999999999999    -10.750999999999999      4.217000000000000
H      -6.883000000000000    -11.922000000000001      3.386000000000000
H      -7.638000000000000    -10.500999999999999      2.607000000000000
H      -8.130000000000001    -13.305999999999999      1.560000000000000
H      -8.664999999999999    -11.795000000000000      0.911000000000000
H      -5.926000000000000    -10.226000000000001      0.493000000000000
H      -7.016000000000000    -11.013000000000000     -0.801000000000000
H      -4.810000000000000    -10.875999999999999     -1.752000000000000
H      -5.082000000000000    -12.558999999999999     -1.285000000000000
H      -3.062000000000000     -9.797000000000001     -0.938000000000000
H      -3.942000000000000     -9.422000000000001      0.562000000000000
H      -1.979000000000000    -11.035000000000000      1.555000000000000
H      -1.121000000000000    -10.352000000000000      0.041000000000000
H       0.386000000000000     -9.234000000000000      2.115000000000000
H      -0.868000000000000     -9.742000000000001      3.292000000000000
H      -0.925000000000000     -6.812000000000000      2.383000000000000
H       0.359000000000000     -7.364000000000000      3.529000000000000
56

O      -0.888000000000000     -5.955000000000000      7.170000000000000
C      -2.008000000000000     -6.682000000000000      7.801000000000000
C      -2.657000000000000     -5.919000000000000      9.023000000000000
O      -3.300000000000000     -4.729000000000000      8.523000000000000
C      -4.674000000000000     -4.919000000000000      8.170999999999999
C      -5.540000000000000     -4.992000000000000      9.468000000000000
O      -6.846000000000000     -5.372000000000000      9.002000000000001
C      -6.981000000000000     -6.773000000000000      8.955000000000000
C      -8.532999999999999     -7.163000000000000      8.917999999999999
O      -9.051000000000000     -7.179000000000000      7.602000000000000
C      -8.926000000000000     -8.470000000000001      7.022000000000000
C      -9.130000000000001     -8.359000000000000      5.491000000000000
O      -9.143000000000001     -9.584000000000000      4.841000000000000
C      -7.841000000000000    -10.076000000000001      4.418000000000000
C      -7.447000000000000     -9.638000000000000      2.998000000000000
O      -6.027000000000000     -9.930000000000000      2.649000000000000
C      -5.670000000000000     -9.099000000000000      1.386000000000000
C      -4.213000000000000     -8.624000000000001      1.344000000000000
O      -3.909000000000000     -7.831000000000000      2.478000000000000
C      -2.580000000000000     -7.160000000000000      2.419000000000000
C      -1.419000000000000     -7.961000000000000      3.120000000000000
O      -1.276000000000000     -7.654000000000000      4.540000000000000
C      -0.296000000000000     -6.677000000000000      4.905000000000000
C       0.023000000000000     -6.731000000000000      6.465000000000000
H      -2.798000000000000     -6.958000000000000      7.092000000000000
H      -1.616000000000000     -7.628000000000000      8.194000000000001
H      -1.834000000000000     -5.709000000000000      9.717000000000001
H      -3.443000000000000     -6.575000000000000      9.419000000000000
H      -4.892000000000000     -5.848000000000000      7.631000000000000
H      -4.940000000000000     -4.009000000000000      7.620000000000000
H      -5.167000000000000     -5.724000000000000     10.196000000000000
H      -5.572000000000000     -4.015000000000000      9.965000000000000
H      -6.480000000000000     -7.182000000000000      8.069000000000001
H      -6.570000000000000     -7.264000000000000      9.846000000000000
H      -9.118000000000000     -6.528000000000000      9.595000000000001
H      -8.579000000000001     -8.202999999999999      9.265000000000001
H      -7.951000000000000     -8.930999999999999      7.220000000000000
H      -9.760000000000000     -9.087999999999999      7.376000000000000
H      -8.465000000000000     -7.569000000000000      5.121000000000000
H     -10.157999999999999     -7.997000000000000      5.364000000000000
H      -7.930000000000000    -11.167000000000000      4.350000000000000
H      -6.972000000000000     -9.855000000000000      5.051000000000000
H      -8.205000000000000     -9.938000000000001      2.264000000000000
H      -7.470000000000000     -8.544000000000000      3.067000000000000
H      -6.225000000000000     -8.154999999999999      1.338000000000000
H      -6.012000000000000     -9.624000000000001      0.486000000000000
H      -3.994000000000000     -8.077000000000000      0.418000000000000
H      -3.507000000000000     -9.462000000000000      1.376000000000000
H      -2.320000000000000     -6.976000000000000      1.370000000000000
H      -2.659000000000000     -6.120000000000000      2.759000000000000
H      -1.775000000000000     -8.997000000000000      3.065000000000000
H      -0.466000000000000     -7.876000000000000      2.582000000000000
H      -0.708000000000000     -5.703000000000000      4.616000000000000
H       0.643000000000000     -6.900000000000000      4.383000000000000
H       1.079000000000000     -6.497000000000000      6.651000000000000
H       0.001000000000000     -7.807000000000000      6.674000000000000
56

O      -3.695000000000000     -7.177000000000000      3.867000000000000
C      -3.661000000000000     -6.628000000000000      5.221000000000000
C      -4.341000000000000     -5.250000000000000      5.293000000000000
O      -5.796000000000000     -5.462000000000000      5.348000000000000
C      -6.466000000000000     -4.588000000000000      6.380000000000000
C      -6.634000000000000     -5.308000000000000      7.722000000000000
O      -8.016000000000000     -5.255000000000000      8.185000000000000
C      -8.772000000000000     -6.437000000000000      8.054000000000000
C      -9.740000000000000     -6.261000000000000      6.791000000000000
O     -10.787000000000001     -7.272000000000000      7.040000000000000
C     -10.542999999999999     -8.522000000000000      6.298000000000000
C     -11.481000000000000     -8.618000000000000      5.095000000000000
O     -11.734000000000000     -9.949999999999999      4.587000000000000
C     -10.624000000000001    -10.858000000000001      4.321000000000000
C     -10.380000000000001    -10.845000000000001      2.830000000000000
O      -9.053000000000001    -11.350000000000000      2.440000000000000
C      -8.958000000000000    -11.563000000000001      0.982000000000000
C      -8.455000000000000    -10.353999999999999      0.233000000000000
O      -7.042000000000000    -10.243000000000000      0.389000000000000
C      -6.374000000000000     -9.048999999999999     -0.070000000000000
C      -4.896000000000000     -9.241000000000000      0.285000000000000
O      -4.515000000000000     -9.070000000000000      1.652000000000000
C      -3.179000000000000     -8.798999999999999      2.102000000000000
C      -3.137000000000000     -8.523000000000000      3.688000000000000
H      -4.186000000000000     -7.233000000000000      5.970000000000000
H      -2.642000000000000     -6.556000000000000      5.620000000000000
H      -3.984000000000000     -4.693000000000000      4.418000000000000
H      -3.994000000000000     -4.778000000000000      6.220000000000000
H      -7.494000000000000     -4.320000000000000      6.106000000000000
H      -6.049000000000000     -3.574000000000000      6.420000000000000
H      -6.322000000000000     -6.356000000000000      7.632000000000000
H      -5.955000000000000     -4.716000000000000      8.349000000000000
H      -8.231999999999999     -7.385000000000000      7.942000000000000
H      -9.413000000000000     -6.540000000000000      8.938000000000001
H      -9.239000000000001     -6.411000000000000      5.827000000000000
H     -10.145000000000000     -5.241000000000000      6.800000000000000
H      -9.484999999999999     -8.529000000000000      6.007000000000000
H     -10.670999999999999     -9.413000000000000      6.924000000000000
H     -10.853000000000000     -8.151999999999999      4.326000000000000
H     -12.449000000000000     -8.132999999999999      5.272000000000000
H     -10.863000000000000    -11.912000000000001      4.512000000000000
H      -9.710000000000001    -10.602000000000000      4.871000000000000
H     -11.148000000000000    -11.411000000000000      2.289000000000000
H     -10.500000000000000     -9.820000000000000      2.459000000000000
H      -9.919000000000000    -11.847000000000000      0.535000000000000
H      -8.301000000000000    -12.385999999999999      0.673000000000000
H      -8.914999999999999     -9.473000000000001      0.698000000000000
H      -8.741000000000000    -10.353000000000000     -0.826000000000000
H      -6.446000000000000     -8.913000000000000     -1.156000000000000
H      -6.784000000000000     -8.137000000000000      0.380000000000000
H      -4.535000000000000    -10.247999999999999      0.040000000000000
H      -4.422000000000000     -8.521000000000001     -0.394000000000000
H      -2.655000000000000     -8.032999999999999      1.518000000000000
H      -2.586000000000000     -9.695000000000000      1.880000000000000
H      -2.118000000000000     -8.579000000000001      4.091000000000000
H      -3.731000000000000     -9.282000000000000      4.213000000000000
56

O      -7.629000000000000     -5.172000000000000      2.605000000000000
C      -6.984000000000000     -5.008000000000000      3.906000000000000
C      -7.974000000000000     -4.532000000000000      5.005000000000000
O      -8.663000000000000     -3.412000000000000      4.433000000000000
C      -8.214000000000000     -2.105000000000000      4.818000000000000
C      -9.423000000000000     -1.236000000000000      5.252000000000000
O     -10.275000000000000     -0.988000000000000      4.082000000000000
C     -11.646000000000001     -0.520000000000000      4.313000000000000
C     -12.443000000000000     -0.812000000000000      2.962000000000000
O     -13.864000000000001     -0.945000000000000      3.164000000000000
C     -14.257000000000000     -2.222000000000000      3.643000000000000
C     -15.342000000000001     -2.855000000000000      2.711000000000000
O     -15.586000000000000     -4.256000000000000      3.097000000000000
C     -14.532999999999999     -5.259000000000000      2.665000000000000
C     -15.047000000000001     -6.090000000000000      1.469000000000000
O     -14.247999999999999     -7.296000000000000      1.342000000000000
C     -14.086000000000000     -7.707000000000000     -0.062000000000000
C     -12.901999999999999     -6.862000000000000     -0.613000000000000
O     -11.686000000000000     -7.636000000000000     -0.724000000000000
C     -10.535000000000000     -6.915000000000000     -1.321000000000000
C      -9.244000000000000     -7.663000000000000     -1.107000000000000
O      -8.922000000000001     -7.536000000000000      0.260000000000000
C      -8.221000000000000     -6.336000000000000      0.661000000000000
C      -7.578000000000000     -6.444000000000000      2.040000000000000
H      -6.559000000000000     -5.949000000000000      4.277000000000000
H      -6.093000000000000     -4.376000000000000      3.808000000000000
H      -7.401000000000000     -4.366000000000000      5.926000000000000
H      -8.666000000000000     -5.378000000000000      5.101000000000000
H      -7.619000000000000     -1.531000000000000      4.096000000000000
H      -7.715000000000000     -2.185000000000000      5.791000000000000
H      -9.958000000000000     -1.744000000000000      6.064000000000000
H      -8.964000000000000     -0.303000000000000      5.600000000000000
H     -12.048999999999999     -1.098000000000000      5.154000000000000
H     -11.821000000000000      0.486000000000000      4.713000000000000
H     -12.006000000000000     -1.730000000000000      2.550000000000000
H     -12.265000000000001     -0.038000000000000      2.206000000000000
H     -13.353000000000000     -2.845000000000000      3.619000000000000
H     -14.648000000000000     -2.089000000000000      4.659000000000000
H     -14.981000000000000     -2.797000000000000      1.677000000000000
H     -16.219999999999999     -2.200000000000000      2.776000000000000
H     -14.369999999999999     -5.920000000000000      3.525000000000000
H     -13.666000000000000     -4.644000000000000      2.394000000000000
H     -16.100999999999999     -6.304000000000000      1.684000000000000
H     -15.096000000000000     -5.453000000000000      0.576000000000000
H     -15.029000000000000     -7.536000000000000     -0.596000000000000
H     -13.830000000000000     -8.773000000000000     -0.090000000000000
H     -12.657000000000000     -6.061000000000000      0.095000000000000
H     -13.204000000000001     -6.489000000000000     -1.600000000000000
H     -10.757000000000000     -6.788000000000000     -2.388000000000000
H     -10.448000000000000     -5.922000000000000     -0.863000000000000
H      -9.320000000000000     -8.699000000000000     -1.459000000000000
H      -8.472000000000000     -7.204000000000000     -1.738000000000000
H      -8.839000000000000     -5.430000000000000      0.631000000000000
H      -7.368000000000000     -6.156000000000000     -0.005000000000000
H      -6.551000000000000     -6.824000000000000      1.987000000000000
H      -8.067000000000000     -7.153000000000000      2.721000000000000
56

O     -11.249000000000001      0.066000000000000      2.799000000000000
C     -12.073000000000000      0.046000000000000      3.998000000000000
C     -13.016000000000000     -1.154000000000000      3.914000000000000
O     -14.340999999999999     -0.666000000000000      3.416000000000000
C     -14.310000000000000     -0.699000000000000      1.960000000000000
C     -15.202000000000000     -1.835000000000000      1.443000000000000
O     -14.760999999999999     -2.274000000000000      0.070000000000000
C     -15.003000000000000     -1.273000000000000     -0.971000000000000
C     -14.768000000000001     -1.904000000000000     -2.449000000000000
O     -13.323000000000000     -2.078000000000000     -2.594000000000000
C     -12.804000000000000     -2.819000000000000     -3.727000000000000
C     -11.288000000000000     -2.689000000000000     -3.660000000000000
O     -10.630000000000001     -3.976000000000000     -3.806000000000000
C     -10.143000000000001     -4.657000000000000     -2.636000000000000
C      -8.695000000000000     -4.231000000000000     -2.168000000000000
O      -8.145000000000000     -5.343000000000000     -1.466000000000000
C      -8.265000000000001     -5.247000000000000     -0.043000000000000
C      -7.130000000000000     -4.430000000000000      0.571000000000000
O      -7.147000000000000     -3.009000000000000      0.390000000000000
C      -6.509000000000000     -2.215000000000000      1.448000000000000
C      -7.493000000000000     -2.009000000000000      2.638000000000000
O      -8.379000000000000     -0.893000000000000      2.318000000000000
C      -8.923000000000000     -0.240000000000000      3.448000000000000
C     -10.053000000000001      0.744000000000000      2.976000000000000
H     -11.555000000000000     -0.188000000000000      4.936000000000000
H     -12.631000000000000      0.981000000000000      4.133000000000000
H     -13.220000000000001     -1.499000000000000      4.935000000000000
H     -12.599000000000000     -2.003000000000000      3.358000000000000
H     -13.353999999999999     -0.847000000000000      1.443000000000000
H     -14.798999999999999      0.225000000000000      1.630000000000000
H     -15.089000000000000     -2.673000000000000      2.142000000000000
H     -16.245000000000001     -1.497000000000000      1.424000000000000
H     -15.996000000000000     -0.808000000000000     -0.992000000000000
H     -14.336000000000000     -0.406000000000000     -0.896000000000000
H     -15.212999999999999     -1.349000000000000     -3.285000000000000
H     -15.276999999999999     -2.874000000000000     -2.391000000000000
H     -12.903000000000000     -3.903000000000000     -3.594000000000000
H     -13.220000000000001     -2.357000000000000     -4.631000000000000
H     -10.984999999999999     -2.004000000000000     -2.858000000000000
H     -11.035000000000000     -2.001000000000000     -4.477000000000000
H     -10.243000000000000     -5.729000000000000     -2.845000000000000
H     -10.898999999999999     -4.539000000000000     -1.850000000000000
H      -8.012000000000000     -4.062000000000000     -3.010000000000000
H      -8.723000000000001     -3.331000000000000     -1.541000000000000
H      -8.247999999999999     -6.239000000000000      0.425000000000000
H      -9.231999999999999     -4.831000000000000      0.268000000000000
H      -6.192000000000000     -4.810000000000000      0.148000000000000
H      -7.078000000000000     -4.643000000000000      1.646000000000000
H      -5.639000000000000     -2.756000000000000      1.841000000000000
H      -6.053000000000000     -1.260000000000000      1.160000000000000
H      -8.039999999999999     -2.915000000000000      2.928000000000000
H      -6.803000000000000     -1.703000000000000      3.435000000000000
H      -8.131000000000000      0.219000000000000      4.052000000000000
H      -9.374000000000001     -0.982000000000000      4.119000000000000
H      -9.657000000000000      1.226000000000000      2.074000000000000
H     -10.249000000000001      1.496000000000000      3.750000000000000
56

O      -6.231000000000000     -5.987000000000000     -4.058000000000000
C      -5.424000000000000     -6.959000000000000     -4.815000000000000
C      -4.802000000000000     -8.044000000000000     -3.906000000000000
O      -5.761000000000000     -8.802000000000000     -3.139000000000000
C      -6.426000000000000     -9.880000000000001     -3.872000000000000
C      -5.766000000000000    -11.273000000000000     -3.619000000000000
O      -6.230000000000000    -11.877000000000001     -2.395000000000000
C      -7.494000000000000    -12.545000000000000     -2.421000000000000
C      -8.507000000000000    -11.832000000000001     -1.557000000000000
O      -9.433999999999999    -12.813000000000001     -0.998000000000000
C     -10.497999999999999    -12.279999999999999     -0.213000000000000
C     -10.101000000000001    -12.052000000000000      1.299000000000000
O      -9.266999999999999    -10.895000000000000      1.293000000000000
C      -8.782000000000000    -10.521000000000001      2.561000000000000
C      -9.686999999999999     -9.444000000000001      3.173000000000000
O      -9.891000000000000     -8.289999999999999      2.392000000000000
C      -8.843000000000000     -7.270000000000000      2.456000000000000
C      -9.409000000000001     -5.855000000000000      2.096000000000000
O      -8.736000000000001     -5.498000000000000      0.835000000000000
C      -9.567000000000000     -5.017000000000000     -0.195000000000000
C      -8.704000000000001     -4.294000000000000     -1.289000000000000
O      -7.565000000000000     -5.044000000000000     -1.716000000000000
C      -6.490000000000000     -4.265000000000000     -2.255000000000000
C      -5.504000000000000     -5.091000000000000     -3.200000000000000
H      -5.930000000000000     -7.672000000000000     -5.479000000000000
H      -4.533000000000000     -6.521000000000000     -5.282000000000000
H      -4.107000000000000     -7.545000000000000     -3.219000000000000
H      -4.227000000000000     -8.776000000000000     -4.487000000000000
H      -6.271000000000000     -9.836000000000000     -4.957000000000000
H      -7.486000000000000     -9.971000000000000     -3.603000000000000
H      -5.888000000000000    -11.980000000000000     -4.449000000000000
H      -4.691000000000000    -11.069000000000001     -3.542000000000000
H      -7.773000000000000    -12.545999999999999     -3.482000000000000
H      -7.378000000000000    -13.571999999999999     -2.053000000000000
H      -9.085000000000001    -11.089000000000000     -2.121000000000000
H      -7.886000000000000    -11.420999999999999     -0.752000000000000
H     -11.022000000000000    -11.454000000000001     -0.709000000000000
H     -11.199000000000000    -13.119999999999999     -0.128000000000000
H      -9.585000000000001    -12.960000000000001      1.636000000000000
H     -10.957000000000001    -11.824999999999999      1.946000000000000
H      -7.739000000000000    -10.180999999999999      2.551000000000000
H      -8.880000000000001    -11.318000000000000      3.309000000000000
H     -10.621000000000000    -10.019000000000000      3.198000000000000
H      -9.372000000000000     -9.172000000000001      4.188000000000000
H      -7.874000000000000     -7.521000000000000      2.008000000000000
H      -8.571999999999999     -7.227000000000000      3.519000000000000
H      -9.161000000000000     -5.027000000000000      2.772000000000000
H     -10.489000000000001     -5.898000000000000      1.911000000000000
H     -10.106000000000000     -5.841000000000000     -0.678000000000000
H     -10.378000000000000     -4.358000000000000      0.141000000000000
H      -9.234000000000000     -3.839000000000000     -2.135000000000000
H      -8.256000000000000     -3.420000000000000     -0.802000000000000
H      -6.041000000000000     -3.590000000000000     -1.516000000000000
H      -6.887000000000000     -3.541000000000000     -2.977000000000000
H      -4.797000000000000     -5.644000000000000     -2.569000000000000
H      -5.064000000000000     -4.292000000000000     -3.809000000000000
56

O      -6.855000000000000     -5.278000000000000     -1.420000000000000
C      -7.503000000000000     -6.521000000000000     -1.732000000000000
C      -7.123000000000000     -7.080000000000000     -3.189000000000000
O      -5.721000000000000     -7.240000000000000     -3.414000000000000
C      -5.097000000000000     -8.345000000000001     -2.750000000000000
C      -5.211000000000000     -9.678000000000001     -3.633000000000000
O      -5.171000000000000    -10.923999999999999     -2.783000000000000
C      -3.881000000000000    -11.270000000000000     -2.139000000000000
C      -4.018000000000000    -12.776999999999999     -1.576000000000000
O      -3.104000000000000    -12.932000000000000     -0.409000000000000
C      -3.730000000000000    -12.752000000000001      0.863000000000000
C      -2.614000000000000    -12.811000000000000      1.960000000000000
O      -3.146000000000000    -12.696000000000000      3.295000000000000
C      -3.336000000000000    -11.270000000000000      3.639000000000000
C      -4.340000000000000    -11.179000000000000      4.865000000000000
O      -5.110000000000000     -9.956000000000000      4.726000000000000
C      -4.788000000000000     -8.808000000000000      5.515000000000000
C      -5.959000000000000     -7.848000000000000      5.277000000000000
O      -5.698000000000000     -6.947000000000000      4.145000000000000
C      -6.731000000000000     -5.958000000000000      3.994000000000000
C      -6.355000000000000     -5.009000000000000      2.800000000000000
O      -6.644000000000000     -5.638000000000000      1.559000000000000
C      -7.850000000000000     -5.193000000000000      0.894000000000000
C      -7.359000000000000     -4.368000000000000     -0.367000000000000
H      -7.237000000000000     -7.281000000000000     -0.987000000000000
H      -8.589000000000000     -6.371000000000000     -1.690000000000000
H      -7.477000000000000     -6.386000000000000     -3.961000000000000
H      -7.714000000000000     -7.990000000000000     -3.344000000000000
H      -5.546000000000000     -8.566000000000001     -1.773000000000000
H      -4.043000000000000     -8.115000000000000     -2.551000000000000
H      -6.167000000000000     -9.577000000000000     -4.162000000000000
H      -4.387000000000000     -9.683999999999999     -4.357000000000000
H      -3.105000000000000    -11.257999999999999     -2.914000000000000
H      -3.682000000000000    -10.599000000000000     -1.294000000000000
H      -3.698000000000000    -13.478000000000000     -2.357000000000000
H      -5.034000000000000    -13.005000000000001     -1.230000000000000
H      -4.349000000000000    -11.847000000000000      0.912000000000000
H      -4.379000000000000    -13.616000000000000      1.049000000000000
H      -2.016000000000000    -11.914000000000000      1.759000000000000
H      -1.961000000000000    -13.692000000000000      1.953000000000000
H      -3.822000000000000    -10.708000000000000      2.832000000000000
H      -2.360000000000000    -10.798000000000000      3.804000000000000
H      -5.037000000000000    -12.026000000000000      4.898000000000000
H      -3.803000000000000    -11.186000000000000      5.822000000000000
H      -3.816000000000000     -8.394000000000000      5.221000000000000
H      -4.589000000000000     -9.032999999999999      6.570000000000000
H      -6.071000000000000     -7.244000000000000      6.185000000000000
H      -6.929000000000000     -8.340999999999999      5.140000000000000
H      -7.699000000000000     -6.394000000000000      3.716000000000000
H      -6.899000000000000     -5.268000000000000      4.830000000000000
H      -6.827000000000000     -4.024000000000000      2.900000000000000
H      -5.301000000000000     -4.719000000000000      2.893000000000000
H      -8.484999999999999     -4.529000000000000      1.493000000000000
H      -8.523000000000000     -6.019000000000000      0.633000000000000
H      -6.534000000000000     -3.749000000000000      0.007000000000000
H      -8.135000000000000     -3.655000000000000     -0.673000000000000
56

O      -6.445000000000000     -8.053000000000001     -3.404000000000000
C      -5.111000000000000     -8.648999999999999     -3.221000000000000
C      -5.072000000000000     -9.885999999999999     -4.085000000000000
O      -5.239000000000000    -11.020000000000000     -3.213000000000000
C      -4.773000000000000    -12.350000000000000     -3.586000000000000
C      -4.831000000000000    -13.285000000000000     -2.282000000000000
O      -6.272000000000000    -13.691000000000001     -1.946000000000000
C      -6.523000000000000    -14.327999999999999     -0.706000000000000
C      -7.854000000000000    -15.013000000000000     -0.699000000000000
O      -8.318000000000000    -15.377000000000001      0.656000000000000
C      -9.105000000000000    -14.334000000000000      1.340000000000000
C      -8.278000000000000    -14.159000000000001      2.639000000000000
O      -8.997999999999999    -13.327999999999999      3.537000000000000
C      -8.239000000000001    -12.929000000000000      4.672000000000000
C      -7.363000000000000    -11.570000000000000      4.489000000000000
O      -8.178000000000001    -10.334000000000000      4.134000000000000
C      -7.488000000000000     -9.084000000000000      4.263000000000000
C      -8.448000000000000     -7.847000000000000      4.027000000000000
O      -8.856000000000000     -7.747000000000000      2.664000000000000
C      -8.407000000000000     -6.526000000000000      1.976000000000000
C      -8.912000000000001     -6.470000000000000      0.463000000000000
O      -7.910000000000000     -6.972000000000000     -0.385000000000000
C      -8.093000000000000     -6.852000000000000     -1.833000000000000
C      -6.692000000000000     -6.900000000000000     -2.557000000000000
H      -4.323000000000000     -7.933000000000000     -3.483000000000000
H      -4.915000000000000     -8.929000000000000     -2.178000000000000
H      -4.074000000000000    -10.032999999999999     -4.515000000000000
H      -5.780000000000000     -9.759000000000000     -4.914000000000000
H      -3.767000000000000    -12.314000000000000     -4.022000000000000
H      -5.455000000000000    -12.797000000000001     -4.320000000000000
H      -4.296000000000000    -14.227000000000000     -2.451000000000000
H      -4.374000000000000    -12.815000000000000     -1.403000000000000
H      -5.736000000000000    -15.077999999999999     -0.563000000000000
H      -6.370000000000000    -13.606000000000000      0.106000000000000
H      -7.755000000000000    -15.893000000000001     -1.346000000000000
H      -8.565000000000000    -14.343999999999999     -1.199000000000000
H      -9.034000000000001    -13.387000000000000      0.792000000000000
H     -10.146000000000001    -14.657999999999999      1.464000000000000
H      -7.216000000000000    -13.904999999999999      2.527000000000000
H      -8.242000000000001    -15.163000000000000      3.078000000000000
H      -7.513000000000000    -13.663000000000000      5.044000000000000
H      -8.872999999999999    -12.622999999999999      5.513000000000000
H      -6.848000000000000    -11.404000000000000      5.443000000000000
H      -6.561000000000000    -11.763999999999999      3.766000000000000
H      -6.635000000000000     -9.185000000000000      3.581000000000000
H      -7.042000000000000     -9.127000000000001      5.264000000000000
H      -7.818000000000000     -6.991000000000000      4.296000000000000
H      -9.332000000000001     -7.896000000000000      4.676000000000000
H      -8.884000000000000     -5.745000000000000      2.582000000000000
H      -7.314000000000000     -6.441000000000000      2.018000000000000
H      -9.826000000000001     -7.072000000000000      0.392000000000000
H      -9.167000000000000     -5.444000000000000      0.170000000000000
H      -8.500999999999999     -5.843000000000000     -1.970000000000000
H      -8.738000000000000     -7.653000000000000     -2.216000000000000
H      -5.910000000000000     -6.895000000000000     -1.788000000000000
H      -6.665000000000000     -5.932000000000000     -3.072000000000000
56

O      -1.956000000000000    -10.686000000000000      2.353000000000000
C      -2.095000000000000    -12.140000000000001      2.649000000000000
C      -2.929000000000000    -12.326000000000001      3.981000000000000
O      -4.272000000000000    -12.210000000000001      3.616000000000000
C      -5.289000000000000    -12.996000000000000      4.292000000000000
C      -6.303000000000000    -13.554000000000000      3.263000000000000
O      -7.171000000000000    -12.548000000000000      2.727000000000000
C      -8.172000000000001    -13.050000000000001      1.880000000000000
C      -7.723000000000000    -13.455000000000000      0.395000000000000
O      -8.839000000000000    -13.365000000000000     -0.448000000000000
C      -8.989000000000001    -12.116000000000000     -1.168000000000000
C      -8.500000000000000    -12.268000000000001     -2.612000000000000
O      -8.637000000000000    -11.007999999999999     -3.315000000000000
C      -7.532000000000000    -10.106000000000000     -3.145000000000000
C      -6.799000000000000     -9.771000000000001     -4.489000000000000
O      -5.427000000000000     -9.359000000000000     -4.187000000000000
C      -5.385000000000000     -8.020000000000000     -3.529000000000000
C      -3.893000000000000     -7.503000000000000     -3.468000000000000
O      -3.195000000000000     -8.064000000000000     -2.347000000000000
C      -1.714000000000000     -8.002000000000001     -2.437000000000000
C      -1.121000000000000     -9.329000000000001     -2.018000000000000
O      -1.620000000000000     -9.558999999999999     -0.673000000000000
C      -1.114000000000000    -10.750000000000000     -0.001000000000000
C      -0.860000000000000    -10.337999999999999      1.492000000000000
H      -2.618000000000000    -12.589000000000000      1.795000000000000
H      -1.072000000000000    -12.535000000000000      2.647000000000000
H      -2.578000000000000    -11.570000000000000      4.694000000000000
H      -2.718000000000000    -13.263999999999999      4.509000000000000
H      -5.867000000000000    -12.317000000000000      4.931000000000000
H      -4.774000000000000    -13.772000000000000      4.871000000000000
H      -5.727000000000000    -14.037000000000001      2.465000000000000
H      -6.905000000000000    -14.382999999999999      3.656000000000000
H      -8.691000000000001    -13.952000000000000      2.228000000000000
H      -8.992000000000001    -12.335000000000001      1.746000000000000
H      -7.343000000000000    -14.483000000000001      0.429000000000000
H      -6.941000000000000    -12.779999999999999      0.024000000000000
H     -10.038000000000000    -11.797000000000001     -1.185000000000000
H      -8.448000000000000    -11.324000000000000     -0.635000000000000
H      -9.130000000000001    -12.964000000000000     -3.180000000000000
H      -7.488000000000000    -12.690000000000000     -2.652000000000000
H      -6.760000000000000    -10.632000000000000     -2.571000000000000
H      -7.926000000000000     -9.185000000000000     -2.698000000000000
H      -6.856000000000000    -10.689000000000000     -5.087000000000000
H      -7.218000000000000     -9.032000000000000     -5.183000000000000
H      -5.799000000000000     -8.137000000000000     -2.520000000000000
H      -5.871000000000000     -7.216000000000000     -4.095000000000000
H      -3.930000000000000     -6.409000000000000     -3.391000000000000
H      -3.375000000000000     -7.792000000000000     -4.391000000000000
H      -1.341000000000000     -7.889000000000000     -3.462000000000000
H      -1.367000000000000     -7.168000000000000     -1.815000000000000
H      -1.438000000000000    -10.145000000000000     -2.678000000000000
H      -0.028000000000000     -9.253000000000000     -2.067000000000000
H      -0.089000000000000    -10.904999999999999     -0.360000000000000
H      -1.701000000000000    -11.677000000000000     -0.014000000000000
H      -0.764000000000000     -9.244999999999999      1.519000000000000
H      -0.005000000000000    -10.901999999999999      1.884000000000000
56

O      -5.673000000000000     -7.795000000000000     -0.262000000000000
C      -5.164000000000000     -9.160000000000000     -0.078000000000000
C      -4.068000000000000     -9.207000000000001      0.972000000000000
O      -4.232000000000000    -10.440000000000000      1.656000000000000
C      -3.278000000000000    -10.612000000000000      2.709000000000000
C      -3.829000000000000     -9.877000000000001      3.997000000000000
O      -4.879000000000000    -10.715000000000000      4.444000000000000
C      -4.601000000000000    -11.654000000000000      5.575000000000000
C      -5.438000000000000    -11.292000000000000      6.757000000000000
O      -6.788000000000000    -11.763999999999999      6.810000000000000
C      -7.764000000000000    -11.140000000000001      5.834000000000000
C      -8.237000000000000     -9.756000000000000      6.481000000000000
O      -9.396000000000001     -9.298000000000000      5.819000000000000
C     -10.377000000000001     -8.635000000000000      6.658000000000000
C     -10.195000000000000     -7.081000000000000      6.466000000000000
O     -10.951000000000001     -6.770000000000000      5.214000000000000
C     -10.545999999999999     -5.581000000000000      4.454000000000000
C     -11.368000000000000     -5.422000000000000      3.137000000000000
O     -10.718000000000000     -6.114000000000000      2.026000000000000
C      -9.768000000000001     -5.303000000000000      1.275000000000000
C      -9.414000000000000     -5.984000000000000     -0.112000000000000
O      -8.295000000000000     -6.878000000000000      0.078000000000000
C      -8.060000000000000     -7.837000000000000     -0.920000000000000
C      -6.542000000000000     -7.633000000000000     -1.352000000000000
H      -6.055000000000000     -9.744999999999999      0.183000000000000
H      -4.729000000000000     -9.436999999999999     -1.046000000000000
H      -4.187000000000000     -8.345000000000001      1.640000000000000
H      -3.118000000000000     -9.177000000000000      0.424000000000000
H      -2.336000000000000    -10.151999999999999      2.386000000000000
H      -3.241000000000000    -11.669000000000000      3.000000000000000
H      -3.035000000000000     -9.818000000000000      4.752000000000000
H      -4.214000000000000     -8.882999999999999      3.739000000000000
H      -4.931000000000000    -12.686999999999999      5.415000000000000
H      -3.545000000000000    -11.766999999999999      5.848000000000000
H      -5.417000000000000    -10.209000000000000      6.936000000000000
H      -4.900000000000000    -11.755000000000001      7.593000000000000
H      -7.436000000000000    -10.997000000000000      4.796000000000000
H      -8.645000000000000    -11.789999999999999      5.767000000000000
H      -7.383000000000000     -9.069000000000001      6.518000000000000
H      -8.454000000000001     -9.965999999999999      7.535000000000000
H     -10.372000000000000     -8.994000000000000      7.695000000000000
H     -11.391000000000000     -8.887000000000000      6.325000000000000
H     -10.692000000000000     -6.501000000000000      7.254000000000000
H      -9.138999999999999     -6.820000000000000      6.324000000000000
H      -9.489000000000001     -5.671000000000000      4.176000000000000
H     -10.657999999999999     -4.677000000000000      5.065000000000000
H     -11.488000000000000     -4.340000000000000      3.006000000000000
H     -12.350000000000000     -5.856000000000000      3.364000000000000
H     -10.186999999999999     -4.316000000000000      1.044000000000000
H      -8.869000000000000     -5.184000000000000      1.891000000000000
H     -10.270000000000000     -6.555000000000000     -0.492000000000000
H      -9.164000000000000     -5.269000000000000     -0.906000000000000
H      -8.707000000000001     -7.525000000000000     -1.749000000000000
H      -8.239000000000001     -8.861000000000001     -0.570000000000000
H      -6.378000000000000     -6.568000000000000     -1.557000000000000
H      -6.349000000000000     -8.295999999999999     -2.204000000000000
56

O      -6.254000000000000     -5.115000000000000     -5.051000000000000
C      -5.149000000000000     -4.305000000000000     -5.624000000000000
C      -3.910000000000000     -4.527000000000000     -4.682000000000000
O      -3.419000000000000     -5.901000000000000     -4.746000000000000
C      -2.231000000000000     -6.161000000000000     -5.469000000000000
C      -1.653000000000000     -7.517000000000000     -4.944000000000000
O      -2.571000000000000     -8.564000000000000     -5.381000000000000
C      -2.252000000000000     -9.837000000000000     -4.776000000000000
C      -2.768000000000000    -10.144000000000000     -3.343000000000000
O      -2.958000000000000    -11.577999999999999     -3.155000000000000
C      -4.160000000000000    -12.135999999999999     -3.819000000000000
C      -5.427000000000000    -12.016999999999999     -2.899000000000000
O      -6.635000000000000    -11.811999999999999     -3.620000000000000
C      -7.928000000000000    -11.996000000000000     -3.065000000000000
C      -8.345000000000001    -10.791000000000000     -2.125000000000000
O      -9.506000000000000     -9.968000000000000     -2.629000000000000
C      -9.994999999999999     -8.875000000000000     -1.782000000000000
C      -9.224000000000000     -7.543000000000000     -2.101000000000000
O     -10.179000000000000     -6.633000000000000     -2.650000000000000
C     -10.492000000000001     -6.767000000000000     -4.077000000000000
C      -9.461000000000000     -5.942000000000000     -4.925000000000000
O      -9.441000000000001     -4.609000000000000     -4.456000000000000
C      -8.353000000000000     -3.823000000000000     -4.872000000000000
C      -7.042000000000000     -4.351000000000000     -4.122000000000000
H      -4.824000000000000     -4.699000000000000     -6.596000000000000
H      -5.441000000000000     -3.250000000000000     -5.549000000000000
H      -4.028000000000000     -4.225000000000000     -3.634000000000000
H      -3.115000000000000     -3.861000000000000     -5.039000000000000
H      -1.405000000000000     -5.451000000000000     -5.342000000000000
H      -2.501000000000000     -6.132000000000000     -6.532000000000000
H      -0.694000000000000     -7.632000000000000     -5.464000000000000
H      -1.466000000000000     -7.467000000000000     -3.864000000000000
H      -2.704000000000000    -10.545000000000000     -5.481000000000000
H      -1.171000000000000    -10.010999999999999     -4.708000000000000
H      -3.726000000000000     -9.614000000000001     -3.262000000000000
H      -1.971000000000000     -9.827999999999999     -2.659000000000000
H      -4.331000000000000    -11.754000000000000     -4.833000000000000
H      -4.119000000000000    -13.183999999999999     -4.141000000000000
H      -5.295000000000000    -11.226000000000001     -2.150000000000000
H      -5.406000000000000    -12.941000000000001     -2.307000000000000
H      -8.010000000000000    -12.971000000000000     -2.569000000000000
H      -8.651000000000000    -12.083000000000000     -3.885000000000000
H      -8.624000000000001    -11.074999999999999     -1.103000000000000
H      -7.438000000000000    -10.194000000000001     -1.966000000000000
H      -9.739000000000001     -9.121000000000000     -0.744000000000000
H     -11.077999999999999     -8.797000000000001     -1.942000000000000
H      -8.372999999999999     -7.720000000000000     -2.771000000000000
H      -8.810000000000000     -7.113000000000000     -1.180000000000000
H     -10.513000000000000     -7.820000000000000     -4.386000000000000
H     -11.467000000000001     -6.292000000000000     -4.238000000000000
H      -8.505000000000001     -6.452000000000000     -4.753000000000000
H      -9.773000000000000     -5.922000000000000     -5.976000000000000
H      -8.534000000000001     -2.766000000000000     -4.641000000000000
H      -8.237000000000000     -3.909000000000000     -5.959000000000000
H      -7.351000000000000     -5.064000000000000     -3.348000000000000
H      -6.481000000000000     -3.536000000000000     -3.647000000000000
56

O       1.522000000000000     -4.578000000000000     -4.473000000000000
C       1.103000000000000     -4.962000000000000     -5.791000000000000
C       2.020000000000000     -6.108000000000000     -6.259000000000000
O       1.508000000000000     -7.399000000000000     -5.813000000000000
C       2.403000000000000     -8.414000000000000     -6.129000000000000
C       1.622000000000000     -9.313000000000001     -7.208000000000000
O       1.833000000000000    -10.765000000000001     -6.893000000000000
C       0.951000000000000    -11.586000000000000     -6.089000000000000
C      -0.251000000000000    -12.125999999999999     -6.984000000000000
O      -1.464000000000000    -12.148000000000000     -6.174000000000000
C      -1.702000000000000    -13.353999999999999     -5.348000000000000
C      -2.217000000000000    -12.920999999999999     -3.886000000000000
O      -3.493000000000000    -12.221000000000000     -4.104000000000000
C      -4.173000000000000    -11.877000000000001     -2.765000000000000
C      -3.455000000000000    -10.815000000000000     -1.899000000000000
O      -4.442000000000000    -10.154000000000000     -1.139000000000000
C      -3.977000000000000     -8.935000000000000     -0.466000000000000
C      -4.293000000000000     -7.732000000000000     -1.415000000000000
O      -3.755000000000000     -6.585000000000000     -0.702000000000000
C      -2.413000000000000     -6.044000000000000     -1.096000000000000
C      -2.541000000000000     -5.328000000000000     -2.428000000000000
O      -1.263000000000000     -5.267000000000000     -3.108000000000000
C      -0.275000000000000     -4.220000000000000     -2.695000000000000
C       0.668000000000000     -3.585000000000000     -3.910000000000000
H       0.034000000000000     -5.207000000000000     -5.779000000000000
H       1.183000000000000     -4.032000000000000     -6.368000000000000
H       3.033000000000000     -5.946000000000000     -5.870000000000000
H       2.184000000000000     -6.240000000000000     -7.336000000000000
H       2.463000000000000     -9.129000000000000     -5.299000000000000
H       3.350000000000000     -8.095000000000001     -6.580000000000000
H       0.539000000000000     -9.132999999999999     -7.207000000000000
H       2.069000000000000     -9.083000000000000     -8.183000000000000
H       1.531000000000000    -12.475000000000000     -5.813000000000000
H       0.640000000000000    -11.108000000000001     -5.152000000000000
H      -0.132000000000000    -13.164999999999999     -7.316000000000000
H      -0.343000000000000    -11.542999999999999     -7.909000000000000
H      -2.539000000000000    -13.957000000000001     -5.720000000000000
H      -0.764000000000000    -13.923000000000000     -5.334000000000000
H      -1.622000000000000    -12.207000000000001     -3.303000000000000
H      -2.335000000000000    -13.882000000000000     -3.370000000000000
H      -4.469000000000000    -12.779999999999999     -2.217000000000000
H      -5.131000000000000    -11.395000000000000     -2.999000000000000
H      -2.623000000000000    -11.266999999999999     -1.346000000000000
H      -3.046000000000000    -10.083000000000000     -2.606000000000000
H      -2.893000000000000     -9.005000000000001     -0.312000000000000
H      -4.596000000000000     -8.747999999999999      0.420000000000000
H      -5.368000000000000     -7.560000000000000     -1.552000000000000
H      -3.774000000000000     -7.806000000000000     -2.378000000000000
H      -2.083000000000000     -5.253000000000000     -0.412000000000000
H      -1.655000000000000     -6.834000000000000     -1.173000000000000
H      -3.231000000000000     -5.863000000000000     -3.092000000000000
H      -2.912000000000000     -4.306000000000000     -2.276000000000000
H       0.232000000000000     -4.492000000000000     -1.761000000000000
H      -0.778000000000000     -3.319000000000000     -2.323000000000000
H       1.277000000000000     -2.818000000000000     -3.414000000000000
H       0.116000000000000     -3.114000000000000     -4.733000000000000
56

O       1.029000000000000    -10.019000000000000     -2.126000000000000
C       1.892000000000000    -11.031000000000001     -1.667000000000000
C       1.717000000000000    -12.308999999999999     -2.571000000000000
O       0.369000000000000    -12.810000000000000     -2.582000000000000
C       0.275000000000000    -14.225000000000000     -2.187000000000000
C      -1.120000000000000    -14.672000000000001     -2.682000000000000
O      -1.808000000000000    -15.451000000000001     -1.685000000000000
C      -2.379000000000000    -14.679000000000000     -0.643000000000000
C      -3.907000000000000    -14.510000000000000     -0.853000000000000
O      -4.280000000000000    -13.348000000000001     -0.115000000000000
C      -5.688000000000000    -13.257000000000000      0.052000000000000
C      -6.318000000000000    -11.836000000000000      0.262000000000000
O      -6.507000000000000    -11.266999999999999     -1.048000000000000
C      -6.932000000000000     -9.855000000000000     -1.047000000000000
C      -5.671000000000000     -8.996000000000000     -0.948000000000000
O      -6.104000000000000     -7.642000000000000     -1.123000000000000
C      -5.610000000000000     -6.919000000000000     -2.290000000000000
C      -4.222000000000000     -6.410000000000000     -1.980000000000000
O      -3.308000000000000     -7.324000000000000     -2.409000000000000
C      -2.701000000000000     -7.096000000000000     -3.638000000000000
C      -1.285000000000000     -6.693000000000000     -3.308000000000000
O      -0.532000000000000     -7.879000000000000     -3.042000000000000
C       0.928000000000000     -7.769000000000000     -2.965000000000000
C       1.517000000000000     -9.186000000000000     -3.183000000000000
H       2.930000000000000    -10.680000000000000     -1.618000000000000
H       1.630000000000000    -11.345000000000001     -0.649000000000000
H       2.469000000000000    -13.047000000000001     -2.266000000000000
H       1.940000000000000    -11.904999999999999     -3.566000000000000
H       0.535000000000000    -14.359999999999999     -1.130000000000000
H       1.088000000000000    -14.762000000000000     -2.691000000000000
H      -1.683000000000000    -13.786000000000000     -2.998000000000000
H      -0.985000000000000    -15.231999999999999     -3.616000000000000
H      -2.197000000000000    -15.160000000000000      0.326000000000000
H      -1.949000000000000    -13.680000000000000     -0.496000000000000
H      -4.534000000000000    -15.407000000000000     -0.780000000000000
H      -4.074000000000000    -14.228999999999999     -1.900000000000000
H      -6.124000000000000    -13.749000000000001     -0.826000000000000
H      -6.017000000000000    -13.926000000000000      0.856000000000000
H      -5.561000000000000    -11.257999999999999      0.805000000000000
H      -7.251000000000000    -11.900000000000000      0.836000000000000
H      -7.636000000000000     -9.635000000000000     -0.235000000000000
H      -7.452000000000000     -9.619999999999999     -1.984000000000000
H      -5.397000000000000     -9.045000000000000      0.113000000000000
H      -4.862000000000000     -9.250000000000000     -1.644000000000000
H      -6.255000000000000     -6.078000000000000     -2.573000000000000
H      -5.580000000000000     -7.459000000000000     -3.244000000000000
H      -4.048000000000000     -6.175000000000000     -0.922000000000000
H      -4.163000000000000     -5.386000000000000     -2.368000000000000
H      -2.780000000000000     -7.988000000000000     -4.272000000000000
H      -3.147000000000000     -6.298000000000000     -4.245000000000000
H      -0.917000000000000     -6.257000000000000     -4.245000000000000
H      -1.247000000000000     -6.049000000000000     -2.421000000000000
H       1.298000000000000     -7.310000000000000     -2.039000000000000
H       1.280000000000000     -7.238000000000000     -3.858000000000000
H       2.598000000000000     -9.006000000000000     -3.135000000000000
H       1.382000000000000     -9.728000000000000     -4.128000000000000
56

O       6.937000000000000     -7.895000000000000     -1.541000000000000
C       7.631000000000000     -7.499000000000000     -0.312000000000000
C       8.959000000000000     -8.273999999999999     -0.209000000000000
O       8.692000000000000     -9.677000000000000      0.036000000000000
C       8.456000000000000    -10.122999999999999      1.439000000000000
C       8.433000000000000    -11.685000000000000      1.299000000000000
O       7.324000000000000    -12.201000000000001      0.484000000000000
C       6.020000000000000    -12.369999999999999      1.137000000000000
C       5.233000000000000    -13.581000000000000      0.482000000000000
O       4.083000000000000    -14.032999999999999      1.346000000000000
C       2.860000000000000    -13.138000000000000      1.396000000000000
C       2.117000000000000    -13.180999999999999      0.057000000000000
O       0.992000000000000    -12.268000000000001      0.142000000000000
C       1.089000000000000    -11.048999999999999     -0.544000000000000
C       0.396000000000000    -11.156000000000001     -1.936000000000000
O       1.002000000000000    -10.147000000000000     -2.876000000000000
C       0.870000000000000     -8.747000000000000     -2.540000000000000
C       1.497000000000000     -7.818000000000000     -3.588000000000000
O       2.897000000000000     -8.196999999999999     -3.809000000000000
C       3.544000000000000     -7.581000000000000     -4.959000000000000
C       4.386000000000000     -6.299000000000000     -4.622000000000000
O       5.337000000000000     -6.523000000000000     -3.565000000000000
C       6.360000000000000     -7.516000000000000     -3.935000000000000
C       7.464000000000000     -7.501000000000000     -2.791000000000000
H       7.879000000000000     -6.431000000000000     -0.281000000000000
H       6.961000000000000     -7.698000000000000      0.533000000000000
H       9.566000000000001     -7.911000000000000      0.630000000000000
H       9.537000000000001     -8.164000000000000     -1.135000000000000
H       7.485000000000000     -9.776000000000000      1.813000000000000
H       9.268000000000001     -9.705000000000000      2.048000000000000
H       9.298999999999999    -11.968000000000000      0.688000000000000
H       8.492000000000001    -12.201000000000001      2.266000000000000
H       6.123000000000000    -12.615000000000000      2.202000000000000
H       5.364000000000000    -11.492000000000001      1.189000000000000
H       6.024000000000000    -14.340000000000000      0.480000000000000
H       4.967000000000000    -13.410000000000000     -0.568000000000000
H       2.176000000000000    -13.499000000000001      2.173000000000000
H       3.149000000000000    -12.116000000000000      1.671000000000000
H       1.682000000000000    -14.176000000000000     -0.098000000000000
H       2.820000000000000    -12.946999999999999     -0.751000000000000
H       2.121000000000000    -10.677000000000000     -0.526000000000000
H       0.473000000000000    -10.272000000000000     -0.074000000000000
H       0.548000000000000    -12.154999999999999     -2.362000000000000
H      -0.672000000000000    -10.989000000000001     -1.754000000000000
H       1.351000000000000     -8.629000000000000     -1.561000000000000
H      -0.204000000000000     -8.525000000000000     -2.518000000000000
H       1.460000000000000     -6.755000000000000     -3.320000000000000
H       0.923000000000000     -8.029000000000000     -4.498000000000000
H       4.212000000000000     -8.339000000000000     -5.385000000000000
H       2.753000000000000     -7.350000000000000     -5.684000000000000
H       4.926000000000000     -6.061000000000000     -5.548000000000000
H       3.742000000000000     -5.459000000000000     -4.336000000000000
H       6.828000000000000     -7.221000000000000     -4.882000000000000
H       5.970000000000000     -8.526999999999999     -4.110000000000000
H       7.903000000000000     -6.497000000000000     -2.750000000000000
H       8.297000000000001     -8.157999999999999     -3.068000000000000
56

O       2.869000000000000    -11.154000000000000     -5.000000000000000
C       3.751000000000000    -11.627000000000001     -6.014000000000000
C       3.313000000000000    -13.077999999999999     -6.530000000000000
O       3.680000000000000    -14.095000000000001     -5.546000000000000
C       2.636000000000000    -14.465999999999999     -4.599000000000000
C       1.808000000000000    -15.692000000000000     -5.117000000000000
O       1.072000000000000    -16.198000000000000     -3.961000000000000
C      -0.208000000000000    -15.528000000000000     -3.612000000000000
C      -0.106000000000000    -15.307000000000000     -2.055000000000000
O      -1.453000000000000    -15.452999999999999     -1.511000000000000
C      -2.182000000000000    -14.289000000000000     -1.401000000000000
C      -1.752000000000000    -13.432000000000000     -0.139000000000000
O      -2.381000000000000    -12.167999999999999     -0.348000000000000
C      -1.985000000000000    -11.137000000000000      0.532000000000000
C      -2.594000000000000     -9.755000000000001      0.249000000000000
O      -2.380000000000000     -9.303000000000001     -1.049000000000000
C      -2.847000000000000     -8.032000000000000     -1.506000000000000
C      -2.774000000000000     -7.965000000000000     -3.111000000000000
O      -1.429000000000000     -8.186000000000000     -3.630000000000000
C      -0.881000000000000     -7.189000000000000     -4.549000000000000
C       0.085000000000000     -7.677000000000000     -5.563000000000000
O       1.318000000000000     -7.929000000000000     -4.916000000000000
C       2.138000000000000     -8.840999999999999     -5.670000000000000
C       2.959000000000000     -9.723000000000001     -4.668000000000000
H       3.772000000000000    -10.999000000000001     -6.913000000000000
H       4.767000000000000    -11.539999999999999     -5.612000000000000
H       3.974000000000000    -13.374000000000001     -7.353000000000000
H       2.292000000000000    -13.196000000000000     -6.912000000000000
H       2.032000000000000    -13.577999999999999     -4.374000000000000
H       3.134000000000000    -14.830000000000000     -3.692000000000000
H       1.217000000000000    -15.500999999999999     -6.021000000000000
H       2.513000000000000    -16.477000000000000     -5.415000000000000
H      -0.275000000000000    -14.579000000000001     -4.159000000000000
H      -0.976000000000000    -16.263000000000002     -3.882000000000000
H       0.461000000000000    -14.396000000000001     -1.827000000000000
H       0.434000000000000    -16.202000000000002     -1.725000000000000
H      -2.202000000000000    -13.635000000000000     -2.282000000000000
H      -3.224000000000000    -14.624000000000001     -1.326000000000000
H      -0.662000000000000    -13.409000000000001     -0.019000000000000
H      -2.106000000000000    -13.760000000000000      0.846000000000000
H      -0.894000000000000    -11.026999999999999      0.524000000000000
H      -2.211000000000000    -11.452999999999999      1.559000000000000
H      -3.670000000000000     -9.949999999999999      0.330000000000000
H      -2.318000000000000     -9.058999999999999      1.050000000000000
H      -2.319000000000000     -7.172000000000000     -1.076000000000000
H      -3.879000000000000     -7.903000000000000     -1.159000000000000
H      -3.109000000000000     -6.933000000000000     -3.270000000000000
H      -3.554000000000000     -8.536000000000000     -3.630000000000000
H      -1.682000000000000     -6.826000000000000     -5.204000000000000
H      -0.431000000000000     -6.300000000000000     -4.088000000000000
H      -0.336000000000000     -8.531000000000001     -6.108000000000000
H       0.254000000000000     -6.819000000000000     -6.226000000000000
H       2.866000000000000     -8.348000000000001     -6.325000000000000
H       1.563000000000000     -9.569000000000001     -6.256000000000000
H       2.566000000000000     -9.680000000000000     -3.644000000000000
H       3.964000000000000     -9.285000000000000     -4.693000000000000
56

O       6.258000000000000    -11.266000000000000     -3.713000000000000
C       6.429000000000000    -12.596000000000000     -3.171000000000000
C       5.183000000000000    -13.483000000000001     -3.475000000000000
O       5.350000000000000    -14.797000000000001     -2.840000000000000
C       4.205000000000000    -15.753000000000000     -2.878000000000000
C       3.335000000000000    -15.500000000000000     -1.712000000000000
O       2.485000000000000    -16.649999999999999     -1.591000000000000
C       1.592000000000000    -16.782000000000000     -0.427000000000000
C       0.635000000000000    -15.579000000000001     -0.299000000000000
O      -0.385000000000000    -15.787000000000001     -1.252000000000000
C      -1.722000000000000    -15.377000000000001     -0.989000000000000
C      -1.739000000000000    -13.808000000000000     -0.834000000000000
O      -1.681000000000000    -13.315000000000000     -2.158000000000000
C      -1.837000000000000    -11.894000000000000     -2.273000000000000
C      -2.132000000000000    -11.765000000000001     -3.795000000000000
O      -0.996000000000000    -11.182000000000000     -4.486000000000000
C      -0.975000000000000     -9.724000000000000     -4.700000000000000
C       0.352000000000000     -9.435000000000000     -5.461000000000000
O       1.336000000000000     -8.768000000000001     -4.612000000000000
C       2.429000000000000     -8.127000000000001     -5.376000000000000
C       3.538000000000000     -7.558000000000000     -4.394000000000000
O       4.081000000000000     -8.581000000000000     -3.528000000000000
C       5.465000000000000     -8.972000000000000     -3.641000000000000
C       5.777000000000000    -10.255000000000001     -2.854000000000000
H       7.366000000000000    -12.959000000000000     -3.612000000000000
H       6.638000000000000    -12.541000000000000     -2.096000000000000
H       5.078000000000000    -13.669000000000000     -4.551000000000000
H       4.312000000000000    -12.923000000000000     -3.112000000000000
H       4.633000000000000    -16.757999999999999     -2.779000000000000
H       3.706000000000000    -15.667999999999999     -3.851000000000000
H       3.958000000000000    -15.478999999999999     -0.809000000000000
H       2.769000000000000    -14.576000000000001     -1.882000000000000
H       1.032000000000000    -17.721000000000000     -0.514000000000000
H       2.124000000000000    -16.934000000000001      0.520000000000000
H       1.188000000000000    -14.632999999999999     -0.349000000000000
H       0.136000000000000    -15.644000000000000      0.676000000000000
H      -2.268000000000000    -15.624000000000001     -1.908000000000000
H      -2.170000000000000    -15.967000000000001     -0.180000000000000
H      -0.877000000000000    -13.452000000000000     -0.255000000000000
H      -2.701000000000000    -13.673999999999999     -0.325000000000000
H      -0.979000000000000    -11.337000000000000     -1.876000000000000
H      -2.769000000000000    -11.648999999999999     -1.749000000000000
H      -2.411000000000000    -12.775000000000000     -4.120000000000000
H      -2.936000000000000    -11.025000000000000     -3.894000000000000
H      -1.151000000000000     -9.132000000000000     -3.794000000000000
H      -1.659000000000000     -9.382999999999999     -5.487000000000000
H       0.070000000000000     -8.817000000000000     -6.322000000000000
H       0.869000000000000    -10.324000000000000     -5.843000000000000
H       2.839000000000000     -8.824999999999999     -6.116000000000000
H       1.976000000000000     -7.399000000000000     -6.061000000000000
H       4.338000000000000     -7.019000000000000     -4.918000000000000
H       2.985000000000000     -6.759000000000000     -3.885000000000000
H       6.052000000000000     -8.122999999999999     -3.269000000000000
H       5.716000000000000     -9.141000000000000     -4.695000000000000
H       4.919000000000000    -10.568000000000000     -2.248000000000000
H       6.560000000000000    -10.042999999999999     -2.116000000000000
56

O       2.137000000000000    -12.167000000000000      5.417000000000000
C       1.308000000000000    -12.007999999999999      6.649000000000000
C       0.934000000000000    -13.435000000000000      7.198000000000000
O       0.099000000000000    -14.196000000000000      6.216000000000000
C      -1.143000000000000    -14.675000000000001      6.839000000000000
C      -2.238000000000000    -13.538000000000000      6.810000000000000
O      -2.225000000000000    -12.721000000000000      5.610000000000000
C      -2.683000000000000    -13.563000000000001      4.446000000000000
C      -4.170000000000000    -13.282000000000000      3.985000000000000
O      -4.352000000000000    -12.023000000000000      3.396000000000000
C      -4.230000000000000    -11.997999999999999      1.964000000000000
C      -4.344000000000000    -10.525000000000000      1.459000000000000
O      -3.517000000000000    -10.305999999999999      0.310000000000000
C      -3.371000000000000     -8.973000000000001     -0.199000000000000
C      -2.168000000000000     -8.981000000000000     -1.053000000000000
O      -1.076000000000000     -8.820000000000000     -0.150000000000000
C       0.112000000000000     -8.318000000000000     -0.722000000000000
C       1.394000000000000     -9.195000000000000     -0.306000000000000
O       1.829000000000000     -8.678000000000001      0.960000000000000
C       3.149000000000000     -9.310000000000000      1.295000000000000
C       2.897000000000000    -10.571999999999999      2.198000000000000
O       2.236000000000000    -10.193000000000000      3.444000000000000
C       3.103000000000000    -10.071000000000000      4.549000000000000
C       3.291000000000000    -11.342000000000001      5.300000000000000
H       1.950000000000000    -11.459000000000000      7.350000000000000
H       0.472000000000000    -11.337000000000000      6.415000000000000
H       0.446000000000000    -13.369999999999999      8.178000000000001
H       1.915000000000000    -13.917999999999999      7.288000000000000
H      -1.117000000000000    -15.020000000000000      7.880000000000000
H      -1.563000000000000    -15.480000000000000      6.224000000000000
H      -3.242000000000000    -13.948000000000000      6.977000000000000
H      -2.072000000000000    -12.943000000000000      7.717000000000000
H      -2.059000000000000    -13.263999999999999      3.594000000000000
H      -2.635000000000000    -14.643000000000001      4.632000000000000
H      -4.735000000000000    -13.266999999999999      4.925000000000000
H      -4.676000000000000    -14.080000000000000      3.428000000000000
H      -3.256000000000000    -12.420000000000000      1.687000000000000
H      -4.969000000000000    -12.619000000000000      1.443000000000000
H      -3.974000000000000     -9.930999999999999      2.304000000000000
H      -5.404000000000000    -10.289000000000000      1.305000000000000
H      -3.307000000000000     -8.199000000000000      0.576000000000000
H      -4.200000000000000     -8.603999999999999     -0.815000000000000
H      -2.071000000000000     -9.942000000000000     -1.574000000000000
H      -2.255000000000000     -8.161000000000000     -1.777000000000000
H       0.265000000000000     -7.265000000000000     -0.455000000000000
H       0.066000000000000     -8.351000000000001     -1.818000000000000
H       2.160000000000000     -9.080000000000000     -1.083000000000000
H       1.099000000000000    -10.239000000000001     -0.142000000000000
H       3.726000000000000     -9.548999999999999      0.393000000000000
H       3.652000000000000     -8.488000000000000      1.819000000000000
H       2.331000000000000    -11.340000000000000      1.656000000000000
H       3.850000000000000    -11.077000000000000      2.401000000000000
H       2.607000000000000     -9.339000000000000      5.198000000000000
H       4.109000000000000     -9.772000000000000      4.229000000000000
H       3.748000000000000    -11.116000000000000      6.271000000000000
H       3.973000000000000    -11.949000000000000      4.692000000000000
56

O       4.268000000000000    -10.380000000000001     -1.091000000000000
C       4.262000000000000    -10.990000000000000      0.193000000000000
C       3.195000000000000    -12.028000000000000      0.233000000000000
O       3.575000000000000    -13.167000000000000     -0.503000000000000
C       2.545000000000000    -14.144000000000000     -0.544000000000000
C       2.243000000000000    -14.599000000000000     -2.026000000000000
O       1.173000000000000    -13.948000000000000     -2.693000000000000
C      -0.159000000000000    -14.422000000000001     -2.433000000000000
C      -1.139000000000000    -13.227000000000000     -2.308000000000000
O      -1.405000000000000    -12.820000000000000     -3.681000000000000
C      -2.579000000000000    -12.109000000000000     -3.967000000000000
C      -2.383000000000000    -10.574000000000000     -3.676000000000000
O      -1.575000000000000     -9.977000000000000     -4.693000000000000
C      -2.221000000000000     -9.573000000000000     -5.892000000000000
C      -1.211000000000000     -8.923999999999999     -6.821000000000000
O      -1.244000000000000     -7.489000000000000     -6.696000000000000
C       0.063000000000000     -6.926000000000000     -6.760000000000000
C       0.730000000000000     -7.034000000000000     -5.373000000000000
O       2.179000000000000     -6.775000000000000     -5.463000000000000
C       2.991000000000000     -7.876000000000000     -5.898000000000000
C       4.285000000000000     -8.096000000000000     -4.968000000000000
O       3.958000000000000     -8.567000000000000     -3.638000000000000
C       5.059000000000000     -8.532999999999999     -2.687000000000000
C       4.529000000000000     -8.920000000000000     -1.263000000000000
H       5.188000000000000    -11.567000000000000      0.313000000000000
H       4.155000000000000    -10.263000000000000      1.007000000000000
H       2.270000000000000    -11.531000000000001     -0.084000000000000
H       3.075000000000000    -12.284000000000001      1.293000000000000
H       1.626000000000000    -13.795999999999999     -0.056000000000000
H       2.939000000000000    -14.923000000000000      0.121000000000000
H       3.147000000000000    -14.394000000000000     -2.612000000000000
H       2.169000000000000    -15.693000000000000     -2.029000000000000
H      -0.438000000000000    -15.160000000000000     -3.196000000000000
H      -0.208000000000000    -14.999000000000001     -1.501000000000000
H      -0.756000000000000    -12.385999999999999     -1.718000000000000
H      -1.994000000000000    -13.590000000000000     -1.723000000000000
H      -2.766000000000000    -12.134000000000000     -5.048000000000000
H      -3.406000000000000    -12.523999999999999     -3.379000000000000
H      -1.875000000000000    -10.532999999999999     -2.705000000000000
H      -3.353000000000000    -10.074999999999999     -3.564000000000000
H      -3.043000000000000     -8.875000000000000     -5.693000000000000
H      -2.653000000000000    -10.441000000000001     -6.406000000000000
H      -0.234000000000000     -9.398999999999999     -6.664000000000000
H      -1.649000000000000     -9.131000000000000     -7.805000000000000
H      -0.080000000000000     -5.863000000000000     -6.993000000000000
H       0.702000000000000     -7.402000000000000     -7.514000000000000
H       0.468000000000000     -8.000000000000000     -4.923000000000000
H       0.277000000000000     -6.255000000000000     -4.747000000000000
H       2.519000000000000     -8.858000000000001     -5.776000000000000
H       3.355000000000000     -7.756000000000000     -6.926000000000000
H       4.851000000000000     -8.942000000000000     -5.379000000000000
H       4.809000000000000     -7.137000000000000     -4.871000000000000
H       5.561000000000000     -7.559000000000000     -2.741000000000000
H       5.869000000000000     -9.211000000000000     -2.985000000000000
H       3.605000000000000     -8.333000000000000     -1.185000000000000
H       5.201000000000000     -8.486000000000001     -0.512000000000000
56

O      -0.597000000000000     -7.792000000000000      1.008000000000000
C      -1.417000000000000     -8.945000000000000      0.685000000000000
C      -2.917000000000000     -8.895000000000000      1.005000000000000
O      -3.659000000000000     -7.801000000000000      0.397000000000000
C      -4.236000000000000     -7.902000000000000     -0.955000000000000
C      -5.443000000000000     -8.835000000000001     -1.008000000000000
O      -5.887000000000000     -8.981999999999999     -2.367000000000000
C      -5.457000000000000    -10.117000000000001     -2.988000000000000
C      -5.966000000000000    -10.109000000000000     -4.525000000000000
O      -5.016000000000000     -9.207000000000001     -5.292000000000000
C      -3.775000000000000     -9.750999999999999     -5.683000000000000
C      -2.924000000000000     -8.789999999999999     -6.563000000000000
O      -1.713000000000000     -9.476000000000001     -6.821000000000000
C      -0.731000000000000     -8.707000000000001     -7.575000000000000
C       0.245000000000000     -7.923000000000000     -6.676000000000000
O       1.229000000000000     -8.904999999999999     -6.140000000000000
C       2.357000000000000     -8.157000000000000     -5.582000000000000
C       2.911000000000000     -8.827000000000000     -4.314000000000000
O       2.425000000000000     -8.116000000000000     -3.144000000000000
C       3.317000000000000     -8.141000000000000     -1.933000000000000
C       2.830000000000000     -9.330000000000000     -1.071000000000000
O       1.557000000000000     -8.994000000000000     -0.404000000000000
C       1.733000000000000     -8.124000000000001      0.795000000000000
C       0.538000000000000     -8.189000000000000      1.796000000000000
H      -1.355000000000000     -9.106000000000000     -0.399000000000000
H      -1.099000000000000     -9.878000000000000      1.168000000000000
H      -2.888000000000000     -8.832000000000001      2.100000000000000
H      -3.271000000000000     -9.904000000000000      0.760000000000000
H      -3.365000000000000     -8.255000000000001     -1.520000000000000
H      -4.403000000000000     -6.880000000000000     -1.317000000000000
H      -5.208000000000000     -9.811000000000000     -0.564000000000000
H      -6.160000000000000     -8.384000000000000     -0.311000000000000
H      -4.368000000000000    -10.199999999999999     -2.879000000000000
H      -5.858000000000000    -11.013000000000000     -2.499000000000000
H      -6.991000000000000     -9.718999999999999     -4.545000000000000
H      -6.030000000000000    -11.135999999999999     -4.908000000000000
H      -3.213000000000000     -9.948000000000000     -4.763000000000000
H      -3.959000000000000    -10.728000000000000     -6.147000000000000
H      -2.777000000000000     -7.847000000000000     -6.022000000000000
H      -3.515000000000000     -8.555000000000000     -7.457000000000000
H      -1.185000000000000     -7.916000000000000     -8.185000000000000
H      -0.177000000000000     -9.417000000000000     -8.202000000000000
H       0.760000000000000     -7.216000000000000     -7.339000000000000
H      -0.370000000000000     -7.434000000000000     -5.912000000000000
H       2.044000000000000     -7.163000000000000     -5.239000000000000
H       3.246000000000000     -8.111000000000001     -6.223000000000000
H       4.007000000000000     -8.781000000000001     -4.312000000000000
H       2.625000000000000     -9.882000000000000     -4.220000000000000
H       4.342000000000000     -8.172000000000001     -2.324000000000000
H       3.156000000000000     -7.182000000000000     -1.425000000000000
H       2.746000000000000    -10.257999999999999     -1.650000000000000
H       3.617000000000000     -9.398000000000000     -0.310000000000000
H       1.858000000000000     -7.112000000000000      0.390000000000000
H       2.551000000000000     -8.365000000000000      1.485000000000000
H       0.875000000000000     -7.447000000000000      2.531000000000000
H       0.503000000000000     -9.201000000000001      2.218000000000000
56

O       1.911000000000000     -7.147000000000000     -3.334000000000000
C       3.071000000000000     -6.457000000000000     -3.818000000000000
C       3.077000000000000     -6.286000000000000     -5.346000000000000
O       4.094000000000000     -5.322000000000000     -5.809000000000000
C       5.375000000000000     -5.942000000000000     -6.141000000000000
C       6.447000000000000     -4.932000000000000     -6.552000000000000
O       6.871000000000000     -4.098000000000000     -5.423000000000000
C       8.313000000000001     -4.035000000000000     -5.168000000000000
C       8.728000000000000     -4.952000000000000     -3.980000000000000
O       9.225000000000000     -4.121000000000000     -2.892000000000000
C       8.597000000000000     -4.154000000000000     -1.606000000000000
C       9.279000000000000     -5.291000000000000     -0.826000000000000
O       8.802000000000000     -5.133000000000000      0.508000000000000
C       9.254000000000000     -6.128000000000000      1.462000000000000
C       8.317000000000000     -6.144000000000000      2.693000000000000
O       7.302000000000000     -7.174000000000000      2.759000000000000
C       6.394000000000000     -6.989000000000000      3.860000000000000
C       5.170000000000000     -8.007999999999999      3.798000000000000
O       4.751000000000000     -8.035000000000000      2.418000000000000
C       3.334000000000000     -7.743000000000000      2.209000000000000
C       2.927000000000000     -8.420000000000000      0.870000000000000
O       1.863000000000000     -7.675000000000000      0.272000000000000
C       2.261000000000000     -7.034000000000000     -0.909000000000000
C       1.943000000000000     -7.932000000000000     -2.093000000000000
H       3.032000000000000     -5.471000000000000     -3.338000000000000
H       3.978000000000000     -6.904000000000000     -3.391000000000000
H       2.069000000000000     -6.008000000000000     -5.678000000000000
H       3.213000000000000     -7.239000000000000     -5.871000000000000
H       5.140000000000000     -6.546000000000000     -7.026000000000000
H       5.703000000000000     -6.672000000000000     -5.391000000000000
H       7.285000000000000     -5.537000000000000     -6.921000000000000
H       6.122000000000000     -4.272000000000000     -7.366000000000000
H       8.898999999999999     -4.165000000000000     -6.086000000000000
H       8.590999999999999     -3.049000000000000     -4.775000000000000
H       9.577999999999999     -5.559000000000000     -4.315000000000000
H       7.897000000000000     -5.560000000000000     -3.602000000000000
H       8.919000000000000     -3.207000000000000     -1.156000000000000
H       7.504000000000000     -4.161000000000000     -1.692000000000000
H      10.355000000000000     -5.077000000000000     -0.835000000000000
H       9.109000000000000     -6.293000000000000     -1.239000000000000
H      10.247999999999999     -5.804000000000000      1.792000000000000
H       9.339000000000000     -7.107000000000000      0.973000000000000
H       8.923000000000000     -6.296000000000000      3.595000000000000
H       7.937000000000000     -5.125000000000000      2.842000000000000
H       5.859000000000000     -6.031000000000000      3.838000000000000
H       6.971000000000000     -7.141000000000000      4.780000000000000
H       4.360000000000000     -7.656000000000000      4.448000000000000
H       5.416000000000000     -9.052000000000000      4.026000000000000
H       2.828000000000000     -8.185000000000000      3.077000000000000
H       3.219000000000000     -6.665000000000000      2.044000000000000
H       3.770000000000000     -8.509000000000000      0.174000000000000
H       2.705000000000000     -9.476000000000001      1.069000000000000
H       3.345000000000000     -6.873000000000000     -0.952000000000000
H       1.756000000000000     -6.062000000000000     -0.979000000000000
H       0.997000000000000     -8.475000000000000     -1.973000000000000
H       2.779000000000000     -8.641000000000000     -2.078000000000000
56

O      -0.319000000000000     -5.722000000000000     -0.242000000000000
C      -1.595000000000000     -5.897000000000000     -1.062000000000000
C      -1.965000000000000     -4.568000000000000     -1.730000000000000
O      -0.945000000000000     -4.267000000000000     -2.727000000000000
C      -0.978000000000000     -2.918000000000000     -3.366000000000000
C       0.200000000000000     -2.940000000000000     -4.333000000000000
O       0.707000000000000     -1.602000000000000     -4.615000000000000
C       1.898000000000000     -1.206000000000000     -4.029000000000000
C       3.146000000000000     -1.767000000000000     -4.725000000000000
O       4.281000000000000     -1.085000000000000     -4.287000000000000
C       5.566000000000000     -1.761000000000000     -4.237000000000000
C       6.566000000000000     -0.946000000000000     -3.355000000000000
O       7.222000000000000     -1.881000000000000     -2.476000000000000
C       8.215999999999999     -1.317000000000000     -1.509000000000000
C       7.490000000000000     -1.362000000000000     -0.154000000000000
O       7.224000000000000     -2.781000000000000      0.099000000000000
C       6.323000000000000     -3.039000000000000      1.101000000000000
C       6.120000000000000     -4.606000000000000      1.276000000000000
O       5.307000000000000     -4.886000000000000      2.478000000000000
C       3.883000000000000     -4.844000000000000      2.424000000000000
C       3.411000000000000     -6.087000000000000      1.551000000000000
O       1.985000000000000     -6.317000000000000      1.753000000000000
C       1.045000000000000     -5.168000000000000      1.692000000000000
C      -0.395000000000000     -5.541000000000000      1.162000000000000
H      -1.296000000000000     -6.575000000000000     -1.871000000000000
H      -2.447000000000000     -6.220000000000000     -0.451000000000000
H      -2.060000000000000     -3.722000000000000     -1.039000000000000
H      -2.896000000000000     -4.679000000000000     -2.300000000000000
H      -0.885000000000000     -2.169000000000000     -2.569000000000000
H      -1.947000000000000     -2.778000000000000     -3.860000000000000
H       1.048000000000000     -3.497000000000000     -3.916000000000000
H      -0.153000000000000     -3.446000000000000     -5.240000000000000
H       1.967000000000000     -0.112000000000000     -4.073000000000000
H       2.054000000000000     -1.528000000000000     -2.992000000000000
H       3.105000000000000     -1.748000000000000     -5.821000000000000
H       3.310000000000000     -2.806000000000000     -4.412000000000000
H       5.466000000000000     -2.766000000000000     -3.807000000000000
H       5.913000000000000     -1.861000000000000     -5.272000000000000
H       5.994000000000000     -0.146000000000000     -2.871000000000000
H       7.395000000000000     -0.613000000000000     -3.992000000000000
H       8.560000000000000     -0.320000000000000     -1.811000000000000
H       9.090999999999999     -1.975000000000000     -1.433000000000000
H       8.121000000000000     -0.965000000000000      0.651000000000000
H       6.570000000000000     -0.769000000000000     -0.230000000000000
H       5.354000000000000     -2.570000000000000      0.893000000000000
H       6.703000000000000     -2.785000000000000      2.098000000000000
H       7.095000000000000     -5.046000000000000      1.516000000000000
H       5.763000000000000     -5.059000000000000      0.343000000000000
H       3.344000000000000     -5.018000000000000      3.363000000000000
H       3.562000000000000     -3.876000000000000      2.019000000000000
H       3.484000000000000     -5.884000000000000      0.476000000000000
H       3.956000000000000     -7.000000000000000      1.824000000000000
H       1.479000000000000     -4.363000000000000      1.085000000000000
H       0.849000000000000     -4.756000000000000      2.689000000000000
H      -1.186000000000000     -4.852000000000000      1.482000000000000
H      -0.577000000000000     -6.535000000000000      1.591000000000000
56

O       0.430000000000000      5.635000000000000      3.035000000000000
C      -0.723000000000000      5.397000000000000      3.838000000000000
C      -1.876000000000000      4.758000000000000      2.972000000000000
O      -2.475000000000000      5.692000000000000      2.032000000000000
C      -3.232000000000000      4.986000000000000      0.966000000000000
C      -3.714000000000000      5.898000000000000     -0.200000000000000
O      -4.099000000000000      5.136000000000000     -1.340000000000000
C      -2.964000000000000      4.562000000000000     -2.067000000000000
C      -3.386000000000000      3.966000000000000     -3.476000000000000
O      -2.240000000000000      3.421000000000000     -4.131000000000000
C      -1.695000000000000      4.283000000000000     -5.197000000000000
C      -1.074000000000000      3.491000000000000     -6.344000000000000
O       0.155000000000000      2.839000000000000     -5.878000000000000
C       1.370000000000000      3.619000000000000     -5.936000000000000
C       2.558000000000000      2.624000000000000     -5.732000000000000
O       2.700000000000000      2.259000000000000     -4.341000000000000
C       3.366000000000000      3.199000000000000     -3.519000000000000
C       3.754000000000000      2.546000000000000     -2.170000000000000
O       4.622000000000000      3.451000000000000     -1.352000000000000
C       4.043000000000000      4.612000000000000     -0.651000000000000
C       3.467000000000000      4.281000000000000      0.756000000000000
O       2.807000000000000      5.431000000000000      1.325000000000000
C       2.857000000000000      5.494000000000000      2.728000000000000
C       1.581000000000000      4.784000000000000      3.334000000000000
H      -0.471000000000000      4.736000000000000      4.677000000000000
H      -1.030000000000000      6.332000000000000      4.323000000000000
H      -2.566000000000000      4.251000000000000      3.658000000000000
H      -1.485000000000000      3.929000000000000      2.369000000000000
H      -4.055000000000000      4.389000000000000      1.378000000000000
H      -2.511000000000000      4.309000000000000      0.491000000000000
H      -4.548000000000000      6.432000000000000      0.272000000000000
H      -2.955000000000000      6.655000000000000     -0.437000000000000
H      -2.273000000000000      5.368000000000000     -2.342000000000000
H      -2.408000000000000      3.790000000000000     -1.521000000000000
H      -3.747000000000000      4.840000000000000     -4.033000000000000
H      -4.168000000000000      3.220000000000000     -3.289000000000000
H      -2.497000000000000      4.934000000000000     -5.566000000000000
H      -0.899000000000000      4.865000000000000     -4.716000000000000
H      -0.866000000000000      4.181000000000000     -7.171000000000000
H      -1.723000000000000      2.725000000000000     -6.787000000000000
H       1.510000000000000      4.349000000000000     -5.130000000000000
H       1.535000000000000      4.034000000000000     -6.938000000000000
H       2.279000000000000      1.765000000000000     -6.355000000000000
H       3.481000000000000      3.009000000000000     -6.182000000000000
H       2.805000000000000      4.086000000000000     -3.200000000000000
H       4.258000000000000      3.468000000000000     -4.099000000000000
H       4.368000000000000      1.640000000000000     -2.251000000000000
H       2.830000000000000      2.354000000000000     -1.612000000000000
H       4.806000000000000      5.380000000000000     -0.475000000000000
H       3.286000000000000      5.043000000000000     -1.318000000000000
H       2.777000000000000      3.429000000000000      0.802000000000000
H       4.275000000000000      4.017000000000000      1.449000000000000
H       3.077000000000000      6.516000000000000      3.060000000000000
H       3.655000000000000      4.959000000000000      3.258000000000000
H       1.835000000000000      4.777000000000000      4.402000000000000
H       1.404000000000000      3.762000000000000      2.978000000000000
56

O       3.334000000000000      4.270000000000000      7.094000000000000
C       2.421000000000000      3.783000000000000      8.026999999999999
C       1.259000000000000      4.755000000000000      8.006000000000000
O       0.454000000000000      4.439000000000000      6.917000000000000
C      -0.537000000000000      5.454000000000000      6.617000000000000
C      -1.446000000000000      4.779000000000000      5.494000000000000
O      -1.320000000000000      5.558000000000000      4.308000000000000
C      -1.901000000000000      4.906000000000000      3.141000000000000
C      -1.850000000000000      5.951000000000000      2.029000000000000
O      -1.757000000000000      5.217000000000000      0.745000000000000
C      -1.515000000000000      6.108000000000000     -0.433000000000000
C      -0.991000000000000      5.184000000000000     -1.594000000000000
O       0.410000000000000      5.192000000000000     -1.581000000000000
C       1.037000000000000      4.168000000000000     -2.477000000000000
C       1.985000000000000      3.312000000000000     -1.640000000000000
O       3.184000000000000      4.107000000000000     -1.419000000000000
C       4.183000000000000      3.496000000000000     -0.614000000000000
C       5.046000000000000      4.687000000000000     -0.135000000000000
O       5.734000000000000      4.171000000000000      1.010000000000000
C       5.025000000000000      4.502000000000000      2.270000000000000
C       5.914000000000000      4.073000000000000      3.470000000000000
O       5.114000000000000      4.217000000000000      4.649000000000000
C       5.133000000000000      3.070000000000000      5.564000000000000
C       4.587000000000000      3.515000000000000      6.993000000000000
H       2.132000000000000      2.741000000000000      7.842000000000000
H       2.844000000000000      3.751000000000000      9.038000000000000
H       1.620000000000000      5.791000000000000      7.985000000000000
H       0.682000000000000      4.580000000000000      8.922000000000001
H      -0.173000000000000      6.449000000000000      6.334000000000000
H      -1.268000000000000      5.538000000000000      7.431000000000000
H      -1.039000000000000      3.766000000000000      5.383000000000000
H      -2.499000000000000      4.776000000000000      5.800000000000000
H      -1.409000000000000      3.962000000000000      2.878000000000000
H      -2.939000000000000      4.575000000000000      3.269000000000000
H      -0.986000000000000      6.621000000000000      2.113000000000000
H      -2.719000000000000      6.620000000000000      2.026000000000000
H      -2.485000000000000      6.523000000000000     -0.734000000000000
H      -0.751000000000000      6.855000000000000     -0.183000000000000
H      -1.342000000000000      5.647000000000000     -2.524000000000000
H      -1.449000000000000      4.200000000000000     -1.431000000000000
H       1.593000000000000      4.768000000000000     -3.207000000000000
H       0.253000000000000      3.560000000000000     -2.945000000000000
H       1.472000000000000      3.117000000000000     -0.690000000000000
H       2.224000000000000      2.350000000000000     -2.110000000000000
H       4.887000000000000      2.821000000000000     -1.117000000000000
H       3.702000000000000      2.982000000000000      0.227000000000000
H       4.383000000000000      5.525000000000000      0.114000000000000
H       5.862000000000000      4.916000000000000     -0.832000000000000
H       4.783000000000000      5.566000000000000      2.382000000000000
H       4.064000000000000      3.973000000000000      2.312000000000000
H       6.080000000000000      3.011000000000000      3.250000000000000
H       6.906000000000000      4.528000000000000      3.582000000000000
H       6.146000000000000      2.647000000000000      5.560000000000000
H       4.444000000000000      2.323000000000000      5.150000000000000
H       5.360000000000000      4.058000000000000      7.551000000000000
H       4.362000000000000      2.561000000000000      7.486000000000000
56

O       3.086000000000000      9.337000000000000      2.383000000000000
C       2.371000000000000      9.657999999999999      3.521000000000000
C       0.933000000000000     10.173999999999999      3.240000000000000
O       0.132000000000000      9.150000000000000      2.457000000000000
C      -1.245000000000000      9.574000000000000      2.199000000000000
C      -1.934000000000000      8.391000000000000      1.608000000000000
O      -1.474000000000000      8.313000000000001      0.244000000000000
C      -2.001000000000000      7.181000000000000     -0.503000000000000
C      -1.495000000000000      7.225000000000000     -1.944000000000000
O      -2.222000000000000      6.291000000000000     -2.813000000000000
C      -1.833000000000000      6.403000000000000     -4.178000000000000
C      -0.500000000000000      5.683000000000000     -4.472000000000000
O       0.070000000000000      6.329000000000000     -5.674000000000000
C       0.795000000000000      7.615000000000000     -5.492000000000000
C       2.153000000000000      7.663000000000000     -6.304000000000000
O       3.324000000000000      7.558000000000000     -5.488000000000000
C       3.905000000000000      8.779999999999999     -4.898000000000000
C       5.140000000000000      8.319000000000001     -4.044000000000000
O       5.554000000000000      9.302000000000000     -3.032000000000000
C       4.865000000000000      9.253000000000000     -1.815000000000000
C       5.540000000000000      8.077999999999999     -0.929000000000000
O       4.855000000000000      8.019000000000000      0.330000000000000
C       5.387000000000000      9.042999999999999      1.195000000000000
C       4.526000000000000      9.103000000000000      2.572000000000000
H       2.232000000000000      8.733000000000001      4.093000000000000
H       2.852000000000000     10.411000000000000      4.158000000000000
H       0.891000000000000     11.182000000000000      2.810000000000000
H       0.424000000000000     10.256000000000000      4.208000000000000
H      -1.210000000000000     10.343999999999999      1.418000000000000
H      -1.783000000000000      9.887000000000000      3.103000000000000
H      -1.777000000000000      7.470000000000000      2.184000000000000
H      -2.997000000000000      8.661000000000000      1.567000000000000
H      -1.575000000000000      6.262000000000000     -0.082000000000000
H      -3.093000000000000      7.280000000000000     -0.505000000000000
H      -0.424000000000000      7.008000000000000     -2.036000000000000
H      -1.736000000000000      8.227000000000000     -2.320000000000000
H      -2.635000000000000      5.874000000000000     -4.708000000000000
H      -1.804000000000000      7.437000000000000     -4.543000000000000
H      -0.559000000000000      4.617000000000000     -4.721000000000000
H       0.245000000000000      5.846000000000000     -3.684000000000000
H       0.847000000000000      7.837000000000000     -4.419000000000000
H       0.223000000000000      8.436999999999999     -5.940000000000000
H       2.123000000000000      6.856000000000000     -7.046000000000000
H       2.220000000000000      8.576000000000001     -6.908000000000000
H       3.123000000000000      9.273999999999999     -4.308000000000000
H       4.248000000000000      9.362000000000000     -5.762000000000000
H       6.000000000000000      8.167000000000000     -4.709000000000000
H       4.943000000000000      7.366000000000000     -3.538000000000000
H       5.063000000000000     10.180000000000000     -1.262000000000000
H       3.780000000000000      9.140000000000001     -1.929000000000000
H       5.451000000000000      7.140000000000000     -1.491000000000000
H       6.616000000000000      8.259000000000000     -0.814000000000000
H       5.202000000000000     10.045000000000000      0.790000000000000
H       6.466000000000000      8.927000000000000      1.353000000000000
H       4.887000000000000      9.919000000000000      3.210000000000000
H       4.659000000000000      8.206000000000000      3.190000000000000
56

O       2.380000000000000      7.003000000000000      4.211000000000000
C       2.315000000000000      6.696000000000000      5.625000000000000
C       0.880000000000000      7.050000000000000      6.059000000000000
O      -0.107000000000000      6.127000000000000      5.505000000000000
C      -1.245000000000000      5.878000000000000      6.330000000000000
C      -2.310000000000000      5.267000000000000      5.460000000000000
O      -3.595000000000000      5.417000000000000      6.075000000000000
C      -4.322000000000000      6.660000000000000      5.981000000000000
C      -5.432000000000000      6.554000000000000      4.951000000000000
O      -6.487000000000000      7.489000000000000      5.320000000000000
C      -6.173000000000000      8.773999999999999      4.664000000000000
C      -6.514000000000000      8.846000000000000      3.133000000000000
O      -5.719000000000000      9.829000000000001      2.440000000000000
C      -5.876000000000000      9.843000000000000      1.030000000000000
C      -4.744000000000000     10.608000000000001      0.373000000000000
O      -3.642000000000000      9.685000000000000      0.236000000000000
C      -2.483000000000000     10.368000000000000     -0.192000000000000
C      -1.573000000000000      9.246000000000000     -0.691000000000000
O      -0.226000000000000      9.628000000000000     -0.274000000000000
C       0.725000000000000      8.581000000000000     -0.621000000000000
C       2.030000000000000      8.747999999999999      0.163000000000000
O       1.898000000000000      8.462000000000000      1.595000000000000
C       3.039000000000000      8.529000000000000      2.360000000000000
C       2.731000000000000      8.404999999999999      3.846000000000000
H       2.637000000000000      5.660000000000000      5.783000000000000
H       2.981000000000000      7.378000000000000      6.168000000000000
H       0.646000000000000      8.077000000000000      5.752000000000000
H       0.776000000000000      7.025000000000000      7.151000000000000
H      -1.656000000000000      6.766000000000000      6.825000000000000
H      -0.969000000000000      5.251000000000000      7.186000000000000
H      -2.220000000000000      5.741000000000000      4.474000000000000
H      -1.986000000000000      4.226000000000000      5.335000000000000
H      -4.740000000000000      6.941000000000000      6.955000000000000
H      -3.504000000000000      7.306000000000000      5.639000000000000
H      -5.912000000000000      5.569000000000000      4.994000000000000
H      -5.059000000000000      6.706000000000000      3.930000000000000
H      -6.684000000000000      9.577000000000000      5.208000000000000
H      -5.137000000000000      9.053000000000001      4.891000000000000
H      -7.572000000000000      9.093000000000000      2.987000000000000
H      -6.375000000000000      7.844000000000000      2.709000000000000
H      -6.851000000000000     10.276000000000000      0.778000000000000
H      -5.814000000000000      8.802000000000000      0.689000000000000
H      -5.064000000000000     10.907000000000000     -0.633000000000000
H      -4.449000000000000     11.496000000000000      0.946000000000000
H      -1.954000000000000     10.872999999999999      0.626000000000000
H      -2.781000000000000     10.978000000000000     -1.054000000000000
H      -1.509000000000000      9.156000000000001     -1.783000000000000
H      -1.809000000000000      8.273000000000000     -0.244000000000000
H       0.184000000000000      7.640000000000000     -0.462000000000000
H       0.915000000000000      8.644000000000000     -1.700000000000000
H       2.755000000000000      7.977000000000000     -0.126000000000000
H       2.488000000000000      9.715999999999999     -0.074000000000000
H       3.488000000000000      9.526999999999999      2.280000000000000
H       3.792000000000000      7.821000000000000      1.990000000000000
H       1.879000000000000      9.079000000000001      3.998000000000000
H       3.610000000000000      8.693000000000000      4.436000000000000
56

O      -1.311000000000000     10.548999999999999      6.393000000000000
C      -2.583000000000000     11.163000000000000      6.710000000000000
C      -2.985000000000000     12.199000000000000      5.636000000000000
O      -2.096000000000000     13.292999999999999      5.700000000000000
C      -2.151000000000000     14.100000000000000      4.441000000000000
C      -1.091000000000000     15.257999999999999      4.502000000000000
O      -1.487000000000000     16.405000000000001      3.722000000000000
C      -1.700000000000000     16.219999999999999      2.302000000000000
C      -0.313000000000000     16.143999999999998      1.448000000000000
O      -0.464000000000000     16.606000000000002      0.109000000000000
C      -0.542000000000000     15.625999999999999     -0.942000000000000
C       0.835000000000000     15.194000000000001     -1.382000000000000
O       0.914000000000000     13.731000000000000     -1.128000000000000
C       1.615000000000000     12.981999999999999     -2.124000000000000
C       2.843000000000000     12.247999999999999     -1.503000000000000
O       2.349000000000000     11.263999999999999     -0.572000000000000
C       3.072000000000000     10.081000000000000     -0.367000000000000
C       3.740000000000000     10.100000000000000      1.099000000000000
O       2.728000000000000      9.706000000000000      2.028000000000000
C       3.153000000000000      9.612000000000000      3.410000000000000
C       2.156000000000000      8.760000000000000      4.255000000000000
O       0.946000000000000      9.513000000000000      4.492000000000000
C       0.063000000000000      8.798999999999999      5.431000000000000
C      -1.381000000000000      9.417000000000000      5.486000000000000
H      -3.323000000000000     10.353999999999999      6.678000000000000
H      -2.374000000000000     11.754000000000000      7.610000000000000
H      -4.035000000000000     12.505000000000001      5.724000000000000
H      -2.751000000000000     11.733000000000001      4.671000000000000
H      -3.130000000000000     14.587000000000000      4.359000000000000
H      -1.986000000000000     13.477000000000000      3.553000000000000
H      -1.073000000000000     15.529999999999999      5.564000000000000
H      -0.155000000000000     14.802000000000000      4.156000000000000
H      -2.285000000000000     15.307000000000000      2.134000000000000
H      -2.269000000000000     17.053000000000001      1.869000000000000
H       0.187000000000000     15.167000000000000      1.447000000000000
H       0.389000000000000     16.824000000000002      1.945000000000000
H      -1.114000000000000     14.736000000000001     -0.651000000000000
H      -1.028000000000000     16.141999999999999     -1.779000000000000
H       1.721000000000000     15.635999999999999     -0.909000000000000
H       0.919000000000000     15.470000000000001     -2.440000000000000
H       1.985000000000000     13.659000000000001     -2.904000000000000
H       0.939000000000000     12.250000000000000     -2.583000000000000
H       3.445000000000000     11.773000000000000     -2.286000000000000
H       3.449000000000000     13.007999999999999     -0.995000000000000
H       3.874000000000000     10.006000000000000     -1.112000000000000
H       2.427000000000000      9.196000000000000     -0.430000000000000
H       4.241000000000000     11.038000000000000      1.367000000000000
H       4.544000000000000      9.353999999999999      1.072000000000000
H       4.105000000000000      9.083000000000000      3.534000000000000
H       3.263000000000000     10.619999999999999      3.830000000000000
H       1.850000000000000      7.881000000000000      3.673000000000000
H       2.463000000000000      8.522000000000000      5.281000000000000
H       0.521000000000000      8.667000000000000      6.419000000000000
H      -0.132000000000000      7.806000000000000      5.007000000000000
H      -2.143000000000000      8.756000000000000      5.917000000000000
H      -1.677000000000000      9.624000000000001      4.450000000000000
56

O       3.293000000000000      8.509000000000000      3.862000000000000
C       2.485000000000000      8.209000000000000      4.920000000000000
C       1.608000000000000      9.516000000000000      5.280000000000000
O       0.347000000000000      9.369000000000000      4.595000000000000
C      -0.551000000000000     10.507999999999999      4.764000000000000
C      -0.110000000000000     11.699000000000000      3.859000000000000
O      -1.086000000000000     12.731000000000000      3.885000000000000
C      -1.640000000000000     13.128000000000000      2.614000000000000
C      -0.655000000000000     14.079000000000001      1.904000000000000
O      -0.152000000000000     13.518000000000001      0.684000000000000
C      -0.969000000000000     13.423000000000000     -0.549000000000000
C      -0.081000000000000     13.492000000000001     -1.780000000000000
O      -0.006000000000000     12.230000000000000     -2.420000000000000
C       1.302000000000000     11.545999999999999     -2.286000000000000
C       2.204000000000000     11.766000000000000     -3.541000000000000
O       3.568000000000000     11.212999999999999     -3.258000000000000
C       3.618000000000000      9.739000000000001     -3.326000000000000
C       3.964000000000000      9.183999999999999     -1.892000000000000
O       3.696000000000000      7.779000000000000     -1.976000000000000
C       4.465000000000000      6.950000000000000     -1.145000000000000
C       3.684000000000000      6.595000000000000      0.158000000000000
O       3.769000000000000      7.595000000000000      1.141000000000000
C       4.787000000000000      7.520000000000000      2.200000000000000
C       4.238000000000000      7.362000000000000      3.549000000000000
H       1.808000000000000      7.364000000000000      4.741000000000000
H       3.094000000000000      8.018000000000001      5.812000000000000
H       2.170000000000000     10.385999999999999      4.920000000000000
H       1.411000000000000      9.510999999999999      6.359000000000000
H      -0.740000000000000     10.848000000000001      5.790000000000000
H      -1.491000000000000     10.114000000000001      4.359000000000000
H       0.831000000000000     12.132000000000000      4.219000000000000
H      -0.004000000000000     11.400000000000000      2.809000000000000
H      -1.760000000000000     12.242000000000001      1.979000000000000
H      -2.574000000000000     13.669000000000000      2.807000000000000
H       0.265000000000000     14.260000000000000      2.473000000000000
H      -1.075000000000000     15.090000000000000      1.836000000000000
H      -1.520000000000000     12.474000000000000     -0.571000000000000
H      -1.633000000000000     14.295000000000000     -0.516000000000000
H       0.861000000000000     13.891000000000000     -1.385000000000000
H      -0.371000000000000     14.292000000000000     -2.473000000000000
H       1.083000000000000     10.472000000000000     -2.244000000000000
H       1.796000000000000     11.839000000000000     -1.351000000000000
H       1.847000000000000     11.335000000000001     -4.485000000000000
H       2.334000000000000     12.843000000000000     -3.703000000000000
H       4.410000000000000      9.384000000000000     -3.997000000000000
H       2.675000000000000      9.404000000000000     -3.777000000000000
H       3.382000000000000      9.737000000000000     -1.144000000000000
H       4.977000000000000      9.284000000000001     -1.483000000000000
H       4.831000000000000      6.076000000000000     -1.698000000000000
H       5.469000000000000      7.363000000000000     -0.989000000000000
H       2.616000000000000      6.361000000000000      0.066000000000000
H       4.140000000000000      5.718000000000000      0.635000000000000
H       5.311000000000000      8.483000000000001      2.152000000000000
H       5.551000000000000      6.799000000000000      1.884000000000000
H       5.031000000000000      7.403000000000000      4.307000000000000
H       3.795000000000000      6.359000000000000      3.550000000000000
56

O      -2.273000000000000      7.122000000000000      4.059000000000000
C      -3.580000000000000      6.893000000000000      3.488000000000000
C      -4.458000000000000      6.073000000000000      4.404000000000000
O      -5.488000000000000      5.431000000000000      3.639000000000000
C      -6.624000000000000      6.364000000000000      3.351000000000000
C      -7.552000000000000      5.634000000000000      2.398000000000000
O      -8.801000000000000      6.347000000000000      2.089000000000000
C      -8.775000000000000      7.053000000000000      0.860000000000000
C      -9.847000000000000      8.183000000000000      0.990000000000000
O      -9.429000000000000      9.225000000000000      1.911000000000000
C     -10.038000000000000     10.478999999999999      1.670000000000000
C      -9.327000000000000     11.339000000000000      0.503000000000000
O      -9.186999999999999     12.704000000000001      0.915000000000000
C      -8.007999999999999     13.068000000000000      1.736000000000000
C      -6.728000000000000     13.218000000000000      0.783000000000000
O      -5.575000000000000     13.404999999999999      1.582000000000000
C      -4.519000000000000     13.897000000000000      0.719000000000000
C      -3.154000000000000     13.624000000000001      1.462000000000000
O      -2.871000000000000     12.207000000000001      1.096000000000000
C      -1.548000000000000     11.768000000000001      1.405000000000000
C      -1.529000000000000     10.134000000000000      1.262000000000000
O      -2.179000000000000      9.483000000000001      2.320000000000000
C      -1.361000000000000      9.300000000000001      3.503000000000000
C      -2.045000000000000      8.391999999999999      4.557000000000000
H      -4.156000000000000      7.811000000000000      3.316000000000000
H      -3.381000000000000      6.359000000000000      2.551000000000000
H      -4.865000000000000      6.649000000000000      5.243000000000000
H      -3.798000000000000      5.271000000000000      4.757000000000000
H      -6.290000000000000      7.299000000000000      2.884000000000000
H      -7.158000000000000      6.699000000000000      4.249000000000000
H      -7.046000000000000      5.234000000000000      1.510000000000000
H      -7.844000000000000      4.695000000000000      2.884000000000000
H      -7.812000000000000      7.568000000000000      0.758000000000000
H      -9.032000000000000      6.419000000000000      0.002000000000000
H     -10.868000000000000      7.851000000000000      1.213000000000000
H      -9.808999999999999      8.593999999999999     -0.026000000000000
H     -11.124000000000001     10.372000000000000      1.556000000000000
H      -9.853000000000000     11.125000000000000      2.537000000000000
H      -9.928000000000001     11.256000000000000     -0.411000000000000
H      -8.321999999999999     10.943000000000000      0.313000000000000
H      -7.847000000000000     12.291000000000000      2.493000000000000
H      -8.282000000000000     13.978999999999999      2.282000000000000
H      -6.573000000000000     12.326000000000001      0.164000000000000
H      -6.838000000000000     14.124000000000001      0.175000000000000
H      -4.670000000000000     14.916000000000000      0.341000000000000
H      -4.517000000000000     13.241000000000000     -0.160000000000000
H      -3.234000000000000     13.776000000000000      2.545000000000000
H      -2.334000000000000     14.237000000000000      1.067000000000000
H      -0.822000000000000     12.183999999999999      0.695000000000000
H      -1.219000000000000     12.124000000000001      2.389000000000000
H      -2.047000000000000      9.867000000000001      0.333000000000000
H      -0.495000000000000      9.772000000000000      1.203000000000000
H      -1.227000000000000     10.239000000000001      4.054000000000000
H      -0.453000000000000      8.739000000000001      3.251000000000000
H      -3.018000000000000      8.742000000000001      4.922000000000000
H      -1.359000000000000      8.452000000000000      5.411000000000000
56

O      -0.212000000000000     11.705000000000000      3.099000000000000
C       0.276000000000000     10.388000000000000      2.635000000000000
C       1.434000000000000      9.943000000000000      3.544000000000000
O       1.535000000000000      8.512000000000000      3.629000000000000
C       0.540000000000000      8.013000000000000      4.572000000000000
C       0.525000000000000      6.451000000000000      4.523000000000000
O      -0.322000000000000      6.130000000000000      3.351000000000000
C      -0.878000000000000      4.784000000000000      3.408000000000000
C      -2.141000000000000      4.763000000000000      4.291000000000000
O      -3.268000000000000      5.393000000000000      3.652000000000000
C      -4.408000000000000      4.499000000000000      3.456000000000000
C      -5.380000000000000      4.721000000000000      4.645000000000000
O      -6.538000000000000      5.400000000000000      4.145000000000000
C      -6.371000000000000      6.852000000000000      4.088000000000000
C      -6.909000000000000      7.568000000000000      5.331000000000000
O      -6.326000000000000      8.895000000000000      5.319000000000000
C      -6.387000000000000      9.509000000000000      6.599000000000000
C      -5.372000000000000     10.706000000000000      6.706000000000000
O      -5.309000000000000     11.462999999999999      5.575000000000000
C      -4.491000000000000     12.707000000000001      5.613000000000000
C      -4.108000000000000     13.183999999999999      4.194000000000000
O      -2.793000000000000     12.741000000000000      3.986000000000000
C      -2.198000000000000     13.287000000000001      2.807000000000000
C      -1.243000000000000     12.286000000000000      2.244000000000000
H      -0.573000000000000      9.694000000000001      2.656000000000000
H       0.675000000000000     10.566000000000001      1.629000000000000
H       1.395000000000000     10.414000000000000      4.534000000000000
H       2.348000000000000     10.276999999999999      3.038000000000000
H      -0.417000000000000      8.526999999999999      4.416000000000000
H       0.798000000000000      8.252000000000001      5.611000000000000
H       1.455000000000000      5.880000000000000      4.411000000000000
H      -0.067000000000000      6.127000000000000      5.387000000000000
H      -1.085000000000000      4.370000000000000      2.413000000000000
H      -0.215000000000000      4.045000000000000      3.874000000000000
H      -1.844000000000000      5.351000000000000      5.169000000000000
H      -2.336000000000000      3.735000000000000      4.621000000000000
H      -4.950000000000000      4.666000000000000      2.516000000000000
H      -4.160000000000000      3.434000000000000      3.544000000000000
H      -4.899000000000000      5.385000000000000      5.374000000000000
H      -5.709000000000000      3.766000000000000      5.072000000000000
H      -6.821000000000000      7.324000000000000      3.206000000000000
H      -5.364000000000000      7.288000000000000      4.090000000000000
H      -7.998000000000000      7.666000000000000      5.424000000000000
H      -6.479000000000000      7.001000000000000      6.166000000000000
H      -6.219000000000000      8.683000000000000      7.302000000000000
H      -7.405000000000000      9.845000000000001      6.828000000000000
H      -4.415000000000000     10.191000000000001      6.856000000000000
H      -5.766000000000000     11.231999999999999      7.585000000000000
H      -5.145000000000000     13.471000000000000      6.051000000000000
H      -3.581000000000000     12.499000000000001      6.189000000000000
H      -4.792000000000000     12.728999999999999      3.466000000000000
H      -4.179000000000000     14.266999999999999      4.036000000000000
H      -1.770000000000000     14.276000000000000      3.014000000000000
H      -3.018000000000000     13.422000000000001      2.091000000000000
H      -0.680000000000000     12.683000000000000      1.390000000000000
H      -1.738000000000000     11.417000000000000      1.793000000000000
56

O      -0.245000000000000     12.460000000000001      8.004000000000000
C      -0.070000000000000     13.212000000000000      6.825000000000000
C      -1.439000000000000     13.276999999999999      6.055000000000000
O      -1.380000000000000     14.278000000000000      4.995000000000000
C      -0.617000000000000     13.760000000000000      3.883000000000000
C      -1.409000000000000     12.849000000000000      2.955000000000000
O      -1.381000000000000     11.504000000000000      3.498000000000000
C      -1.945000000000000     10.391999999999999      2.760000000000000
C      -0.905000000000000      9.811000000000000      1.725000000000000
O       0.418000000000000      9.500999999999999      2.366000000000000
C       1.186000000000000      8.558999999999999      1.593000000000000
C       2.619000000000000      8.539999999999999      2.155000000000000
O       2.769000000000000      8.000000000000000      3.493000000000000
C       4.073000000000000      7.939000000000000      4.033000000000000
C       4.213000000000000      6.768000000000000      5.022000000000000
O       3.306000000000000      7.059000000000000      6.167000000000000
C       3.076000000000000      5.999000000000000      7.083000000000000
C       3.534000000000000      6.521000000000000      8.490000000000000
O       2.587000000000000      7.466000000000000      9.052000000000000
C       3.169000000000000      8.207000000000001     10.083000000000000
C       2.110000000000000      9.255000000000001     10.539999999999999
O       2.140000000000000     10.401000000000000      9.698000000000000
C       0.822000000000000     11.009000000000000      9.477000000000000
C       1.046000000000000     12.230000000000000      8.574000000000000
H       0.127000000000000     14.256000000000000      7.102000000000000
H       0.618000000000000     12.771000000000001      6.093000000000000
H      -2.296000000000000     13.464000000000000      6.714000000000000
H      -1.697000000000000     12.318000000000000      5.590000000000000
H       0.311000000000000     13.300000000000001      4.247000000000000
H      -0.334000000000000     14.518000000000001      3.143000000000000
H      -2.436000000000000     13.207000000000001      2.808000000000000
H      -0.864000000000000     12.819000000000001      2.003000000000000
H      -2.133000000000000      9.528000000000000      3.408000000000000
H      -2.855000000000000     10.657999999999999      2.209000000000000
H      -0.794000000000000     10.439000000000000      0.833000000000000
H      -1.422000000000000      8.929000000000000      1.326000000000000
H       0.773000000000000      7.550000000000000      1.470000000000000
H       1.253000000000000      8.984000000000000      0.583000000000000
H       2.965000000000000      9.581000000000000      2.157000000000000
H       3.228000000000000      7.964000000000000      1.448000000000000
H       4.434000000000000      8.849000000000000      4.529000000000000
H       4.774000000000000      7.751000000000000      3.211000000000000
H       3.971000000000000      5.833000000000000      4.501000000000000
H       5.231000000000000      6.652000000000000      5.415000000000000
H       3.542000000000000      5.052000000000000      6.783000000000000
H       2.001000000000000      5.789000000000000      7.142000000000000
H       4.562000000000000      6.891000000000000      8.395000000000000
H       3.653000000000000      5.624000000000000      9.109999999999999
H       3.457000000000000      7.555000000000000     10.917000000000000
H       4.070000000000000      8.715999999999999      9.720000000000001
H       1.169000000000000      8.691000000000001     10.557000000000000
H       2.247000000000000      9.516999999999999     11.596000000000000
H       0.330000000000000     11.349000000000000     10.396000000000001
H       0.274000000000000     10.205000000000000      8.971000000000000
H       1.900000000000000     12.019000000000000      7.919000000000000
H       1.303000000000000     13.077999999999999      9.221000000000000
56

O       3.765000000000000     14.003000000000000      6.741000000000000
C       3.574000000000000     14.840999999999999      5.565000000000000
C       3.714000000000000     13.971000000000000      4.353000000000000
O       2.442000000000000     13.458000000000000      3.966000000000000
C       2.094000000000000     13.829000000000001      2.606000000000000
C       0.942000000000000     12.904999999999999      2.215000000000000
O       1.458000000000000     11.734999999999999      1.456000000000000
C       0.767000000000000     10.557000000000000      1.815000000000000
C       1.290000000000000      9.271000000000001      1.128000000000000
O       2.522000000000000      8.898000000000000      1.798000000000000
C       3.195000000000000      7.686000000000000      1.457000000000000
C       4.615000000000000      7.562000000000000      2.121000000000000
O       4.495000000000000      7.097000000000000      3.400000000000000
C       5.688000000000000      6.946000000000000      4.170000000000000
C       5.334000000000000      6.114000000000000      5.431000000000000
O       4.665000000000000      6.934000000000000      6.418000000000000
C       4.194000000000000      6.321000000000000      7.687000000000000
C       3.482000000000000      7.458000000000000      8.597000000000000
O       4.482000000000000      8.489000000000001      8.863000000000000
C       3.960000000000000      9.690000000000000      9.468000000000000
C       4.908000000000000     10.840999999999999      9.321999999999999
O       4.315000000000000     12.015000000000001      8.814000000000000
C       5.245000000000000     13.122999999999999      8.484000000000000
C       5.146000000000000     13.521000000000001      6.954000000000000
H       2.572000000000000     15.287000000000001      5.573000000000000
H       4.316000000000000     15.634000000000000      5.408000000000000
H       4.464000000000000     13.178000000000001      4.465000000000000
H       4.134000000000000     14.538000000000000      3.514000000000000
H       2.939000000000000     13.651999999999999      1.929000000000000
H       1.844000000000000     14.887000000000000      2.465000000000000
H       0.308000000000000     12.672000000000001      3.079000000000000
H       0.317000000000000     13.516000000000000      1.553000000000000
H       0.753000000000000     10.467000000000001      2.908000000000000
H      -0.241000000000000     10.724000000000000      1.415000000000000
H       1.529000000000000      9.519000000000000      0.086000000000000
H       0.545000000000000      8.471000000000000      1.216000000000000
H       2.509000000000000      6.846000000000000      1.620000000000000
H       3.372000000000000      7.681000000000000      0.375000000000000
H       4.982000000000000      8.595000000000001      2.178000000000000
H       5.168000000000000      6.868000000000000      1.476000000000000
H       6.066000000000000      7.957000000000000      4.363000000000000
H       6.459000000000000      6.439000000000000      3.577000000000000
H       4.644000000000000      5.292000000000000      5.203000000000000
H       6.290000000000000      5.680000000000000      5.749000000000000
H       5.050000000000000      5.869000000000000      8.204000000000001
H       3.465000000000000      5.556000000000000      7.390000000000000
H       3.164000000000000      6.988000000000000      9.536000000000000
H       2.590000000000000      7.769000000000000      8.039000000000000
H       3.122000000000000     10.135000000000000      8.917000000000000
H       3.691000000000000      9.481999999999999     10.510999999999999
H       5.322000000000000     11.077000000000000     10.310000000000000
H       5.754000000000000     10.641999999999999      8.653000000000000
H       6.264000000000000     12.954000000000001      8.855000000000000
H       4.918000000000000     14.047000000000001      8.977000000000000
H       5.396000000000000     12.638000000000000      6.353000000000000
H       5.860000000000000     14.300000000000001      6.662000000000000
56

O       4.194000000000000      9.663000000000000      4.369000000000000
C       3.411000000000000     10.603999999999999      3.541000000000000
C       2.157000000000000      9.881000000000000      3.004000000000000
O       2.504000000000000      8.872999999999999      2.007000000000000
C       2.762000000000000      7.545000000000000      2.591000000000000
C       3.299000000000000      6.745000000000000      1.439000000000000
O       3.786000000000000      5.502000000000000      1.808000000000000
C       4.600000000000000      4.766000000000000      0.887000000000000
C       6.095000000000000      4.827000000000000      1.246000000000000
O       6.262000000000000      4.160000000000000      2.545000000000000
C       7.581000000000000      4.069000000000000      3.048000000000000
C       7.607000000000000      3.535000000000000      4.508000000000000
O       8.646000000000001      4.236000000000000      5.120000000000000
C       9.039999999999999      3.544000000000000      6.316000000000000
C       9.592000000000001      4.585000000000000      7.262000000000000
O       8.810000000000000      4.748000000000000      8.502000000000001
C       7.641000000000000      5.582000000000000      8.372000000000000
C       8.130000000000001      6.996000000000000      8.738000000000000
O       7.147000000000000      7.967000000000000      8.223000000000001
C       6.487000000000000      8.782999999999999      9.157000000000000
C       5.159000000000000      9.243000000000000      8.560000000000000
O       5.455000000000000     10.127000000000001      7.449000000000000
C       4.262000000000000     10.551000000000000      6.731000000000000
C       3.647000000000000      9.538000000000000      5.746000000000000
H       3.155000000000000     11.534000000000001      4.064000000000000
H       4.036000000000000     10.805000000000000      2.663000000000000
H       1.491000000000000     10.627000000000001      2.551000000000000
H       1.621000000000000      9.315000000000000      3.775000000000000
H       1.793000000000000      7.143000000000000      2.913000000000000
H       3.488000000000000      7.517000000000000      3.413000000000000
H       2.504000000000000      6.597000000000000      0.698000000000000
H       4.006000000000000      7.345000000000000      0.852000000000000
H       4.288000000000000      3.714000000000000      0.853000000000000
H       4.458000000000000      5.191000000000000     -0.114000000000000
H       6.290000000000000      5.904000000000000      1.313000000000000
H       6.734000000000000      4.339000000000000      0.499000000000000
H       8.214000000000000      3.435000000000000      2.416000000000000
H       8.032999999999999      5.068000000000000      3.100000000000000
H       7.751000000000000      2.452000000000000      4.611000000000000
H       6.685000000000000      3.805000000000000      5.038000000000000
H       9.885000000000000      2.925000000000000      5.990000000000000
H       8.228999999999999      3.022000000000000      6.840000000000000
H      10.539999999999999      4.106000000000000      7.536000000000000
H       9.837000000000000      5.521000000000000      6.745000000000000
H       6.921000000000000      5.276000000000000      9.141000000000000
H       7.170000000000000      5.487000000000000      7.386000000000000
H       9.010000000000000      7.177000000000000      8.108000000000001
H       8.430999999999999      7.163000000000000      9.779999999999999
H       6.232000000000000      8.183000000000000     10.039000000000000
H       7.096000000000000      9.648999999999999      9.444000000000001
H       4.643000000000000      8.340999999999999      8.209000000000000
H       4.530000000000000      9.773999999999999      9.285000000000000
H       4.620000000000000     11.413000000000000      6.155000000000000
H       3.481000000000000     11.036000000000000      7.328000000000000
H       2.562000000000000      9.702000000000000      5.756000000000000
H       3.937000000000000      8.515000000000001      6.015000000000000
56

O       3.029000000000000      7.379000000000000     -4.731000000000000
C       3.394000000000000      6.087000000000000     -4.235000000000000
C       3.775000000000000      6.031000000000000     -2.733000000000000
O       5.057000000000000      6.599000000000000     -2.440000000000000
C       6.033000000000000      5.647000000000000     -2.092000000000000
C       7.371000000000000      6.286000000000000     -1.608000000000000
O       7.286000000000000      7.218000000000000     -0.485000000000000
C       7.850000000000000      6.750000000000000      0.758000000000000
C       7.699000000000000      7.862000000000000      1.732000000000000
O       8.372999999999999      9.065000000000000      1.380000000000000
C       8.444000000000001      9.956000000000000      2.484000000000000
C       7.133000000000000     10.835000000000001      2.534000000000000
O       7.316000000000000     11.875999999999999      1.551000000000000
C       6.819000000000000     13.223000000000001      1.908000000000000
C       5.245000000000000     13.353000000000000      1.787000000000000
O       4.763000000000000     13.260999999999999      0.407000000000000
C       3.687000000000000     14.071000000000000      0.048000000000000
C       2.367000000000000     13.199999999999999      0.430000000000000
O       1.760000000000000     13.034000000000001     -0.837000000000000
C       1.761000000000000     11.641000000000000     -1.239000000000000
C       1.212000000000000     11.446999999999999     -2.742000000000000
O       0.932000000000000     10.058000000000000     -2.999000000000000
C       2.172000000000000      9.279000000000000     -3.365000000000000
C       1.852000000000000      8.054000000000000     -4.222000000000000
H       2.540000000000000      5.453000000000000     -4.502000000000000
H       4.234000000000000      5.742000000000000     -4.851000000000000
H       3.748000000000000      4.973000000000000     -2.443000000000000
H       3.023000000000000      6.628000000000000     -2.203000000000000
H       6.301000000000000      5.148000000000000     -3.032000000000000
H       5.688000000000000      4.931000000000000     -1.336000000000000
H       8.013999999999999      5.422000000000000     -1.395000000000000
H       7.919000000000000      6.754000000000000     -2.434000000000000
H       7.275000000000000      5.880000000000000      1.098000000000000
H       8.916000000000000      6.507000000000000      0.661000000000000
H       8.176000000000000      7.575000000000000      2.677000000000000
H       6.687000000000000      8.211000000000000      1.973000000000000
H       8.528000000000000      9.505000000000001      3.481000000000000
H       9.315000000000000     10.577000000000000      2.240000000000000
H       7.065000000000000     11.289000000000000      3.530000000000000
H       6.209000000000000     10.254000000000000      2.424000000000000
H       7.313000000000000     13.951000000000001      1.253000000000000
H       7.240000000000000     13.518000000000001      2.877000000000000
H       4.694000000000000     12.616000000000000      2.383000000000000
H       5.010000000000000     14.316000000000001      2.258000000000000
H       3.644000000000000     14.292000000000000     -1.025000000000000
H       3.682000000000000     15.019000000000000      0.600000000000000
H       1.766000000000000     13.880000000000001      1.045000000000000
H       2.731000000000000     12.273999999999999      0.892000000000000
H       2.692000000000000     11.061999999999999     -1.202000000000000
H       1.044000000000000     11.081000000000000     -0.625000000000000
H       0.320000000000000     12.086000000000000     -2.749000000000000
H       1.895000000000000     11.890000000000001     -3.477000000000000
H       2.712000000000000      8.994999999999999     -2.453000000000000
H       2.840000000000000      9.869999999999999     -4.003000000000000
H       1.212000000000000      8.347000000000000     -5.063000000000000
H       1.279000000000000      7.357000000000000     -3.597000000000000
56

O       5.906000000000000      7.181000000000000     -5.004000000000000
C       7.239000000000000      6.730000000000000     -5.165000000000000
C       7.520000000000000      5.668000000000000     -4.045000000000000
O       7.472000000000000      6.317000000000000     -2.711000000000000
C       8.529999999999999      7.219000000000000     -2.398000000000000
C       8.350000000000000      7.745000000000000     -0.981000000000000
O       9.438000000000001      8.676000000000000     -0.842000000000000
C       9.276999999999999      9.988000000000000     -1.301000000000000
C       8.632000000000000     10.821000000000000     -0.171000000000000
O       7.857000000000000     11.917999999999999     -0.745000000000000
C       7.242000000000000     12.715000000000000      0.325000000000000
C       5.816000000000000     12.300000000000001      0.632000000000000
O       4.962000000000000     12.561000000000000     -0.477000000000000
C       3.538000000000000     12.693000000000000     -0.185000000000000
C       3.021000000000000     11.199000000000000     -0.200000000000000
O       1.614000000000000     11.185000000000000      0.063000000000000
C       0.781000000000000     10.766999999999999     -1.040000000000000
C       0.740000000000000      9.225000000000000     -1.286000000000000
O       0.443000000000000      8.900000000000000     -2.730000000000000
C       1.650000000000000      8.831000000000000     -3.514000000000000
C       1.902000000000000      7.378000000000000     -4.049000000000000
O       3.278000000000000      7.228000000000000     -4.431000000000000
C       3.579000000000000      7.369000000000000     -5.835000000000000
C       5.004000000000000      6.783000000000000     -6.028000000000000
H       7.442000000000000      6.468000000000000     -6.211000000000000
H       7.928000000000000      7.563000000000000     -4.980000000000000
H       8.481000000000000      5.159000000000000     -4.187000000000000
H       6.858000000000000      4.797000000000000     -4.125000000000000
H       8.571000000000000      8.131000000000000     -3.007000000000000
H       9.472000000000000      6.672000000000000     -2.530000000000000
H       7.355000000000000      8.190000000000000     -0.855000000000000
H       8.452999999999999      6.898000000000000     -0.290000000000000
H      10.292999999999999     10.349000000000000     -1.500000000000000
H       8.682000000000000      9.996000000000000     -2.223000000000000
H       9.472000000000000     11.297000000000001      0.350000000000000
H       8.115000000000000     10.186000000000000      0.559000000000000
H       7.902000000000000     12.702000000000000      1.202000000000000
H       7.286000000000000     13.738000000000000     -0.069000000000000
H       5.521000000000000     13.013999999999999      1.411000000000000
H       5.839000000000000     11.226000000000001      0.857000000000000
H       3.136000000000000     13.298999999999999     -1.006000000000000
H       3.423000000000000     13.194000000000001      0.785000000000000
H       3.219000000000000     10.613000000000000     -1.106000000000000
H       3.543000000000000     10.673999999999999      0.610000000000000
H       1.083000000000000     11.201000000000001     -2.001000000000000
H      -0.245000000000000     11.132000000000000     -0.908000000000000
H      -0.087000000000000      8.805000000000000     -0.700000000000000
H       1.677000000000000      8.805999999999999     -0.900000000000000
H       1.622000000000000      9.522000000000000     -4.366000000000000
H       2.490000000000000      9.186999999999999     -2.905000000000000
H       1.660000000000000      6.681000000000000     -3.237000000000000
H       1.226000000000000      7.190000000000000     -4.892000000000000
H       3.572000000000000      8.430000000000000     -6.114000000000000
H       2.838000000000000      6.795000000000000     -6.405000000000000
H       5.489000000000000      7.101000000000000     -6.960000000000000
H       5.084000000000000      5.690000000000000     -6.070000000000000
56

O      -2.497000000000000      7.728000000000000     -9.723000000000001
C      -1.199000000000000      7.944000000000000    -10.478000000000000
C      -0.478000000000000      9.228999999999999    -10.050000000000001
O      -1.217000000000000     10.315000000000000    -10.577000000000000
C      -1.395000000000000     11.467000000000001     -9.782999999999999
C      -0.076000000000000     12.013999999999999     -9.183000000000000
O      -0.215000000000000     13.468000000000000     -8.897000000000000
C      -1.118000000000000     13.814000000000000     -7.778000000000000
C      -0.318000000000000     14.085000000000001     -6.494000000000000
O      -1.217000000000000     14.221000000000000     -5.348000000000000
C      -0.580000000000000     14.493000000000000     -4.000000000000000
C      -0.067000000000000     13.159000000000001     -3.344000000000000
O      -1.163000000000000     12.561000000000000     -2.515000000000000
C      -0.844000000000000     11.388000000000000     -1.700000000000000
C      -1.994000000000000     10.801000000000000     -0.913000000000000
O      -3.096000000000000     10.304000000000000     -1.725000000000000
C      -3.005000000000000      8.888999999999999     -2.058000000000000
C      -4.050000000000000      8.464000000000000     -3.056000000000000
O      -3.486000000000000      7.548000000000000     -4.039000000000000
C      -4.416000000000000      6.869000000000000     -4.927000000000000
C      -3.625000000000000      6.061000000000000     -5.911000000000000
O      -2.788000000000000      7.037000000000000     -6.645000000000000
C      -1.893000000000000      6.517000000000000     -7.619000000000000
C      -2.654000000000000      6.467000000000000     -9.013999999999999
H      -0.467000000000000      7.155000000000000    -10.260999999999999
H      -1.417000000000000      8.061000000000000    -11.547000000000001
H       0.494000000000000      9.212999999999999    -10.558999999999999
H      -0.313000000000000      9.286000000000000     -8.967000000000001
H      -2.098000000000000     11.353000000000000     -8.948000000000000
H      -1.855000000000000     12.138000000000000    -10.519000000000000
H       0.121000000000000     11.571000000000000     -8.199000000000000
H       0.751000000000000     11.840999999999999     -9.882999999999999
H      -1.737000000000000     14.692000000000000     -8.000000000000000
H      -1.840000000000000     13.016000000000000     -7.566000000000000
H       0.289000000000000     14.992000000000001     -6.601000000000000
H       0.421000000000000     13.298000000000000     -6.299000000000000
H       0.300000000000000     15.081000000000000     -4.290000000000000
H      -1.246000000000000     15.037000000000001     -3.319000000000000
H       0.871000000000000     13.336000000000000     -2.804000000000000
H       0.360000000000000     12.468999999999999     -4.083000000000000
H      -0.073000000000000     11.692000000000000     -0.981000000000000
H      -0.363000000000000     10.645000000000000     -2.349000000000000
H      -1.616000000000000     10.002000000000001     -0.263000000000000
H      -2.399000000000000     11.589000000000000     -0.266000000000000
H      -2.961000000000000      8.287000000000001     -1.142000000000000
H      -2.031000000000000      8.698000000000000     -2.527000000000000
H      -4.466000000000000      9.364000000000001     -3.527000000000000
H      -4.839000000000000      7.936000000000000     -2.506000000000000
H      -5.060000000000000      6.145000000000000     -4.412000000000000
H      -5.013000000000000      7.689000000000000     -5.344000000000000
H      -2.962000000000000      5.348000000000000     -5.405000000000000
H      -4.264000000000000      5.483000000000000     -6.590000000000000
H      -1.474000000000000      5.526000000000000     -7.406000000000000
H      -0.975000000000000      7.114000000000000     -7.679000000000000
H      -3.712000000000000      6.330000000000000     -8.760999999999999
H      -2.275000000000000      5.675000000000000     -9.672000000000001
56

O       4.169000000000000      8.406000000000001     -3.707000000000000
C       3.807000000000000      9.680999999999999     -3.098000000000000
C       4.231000000000000     10.804000000000000     -4.072000000000000
O       3.542000000000000     12.042999999999999     -3.691000000000000
C       3.023000000000000     12.843999999999999     -4.809000000000000
C       2.396000000000000     14.106000000000000     -4.344000000000000
O       1.591000000000000     13.736000000000001     -3.222000000000000
C       1.367000000000000     14.787000000000001     -2.260000000000000
C      -0.131000000000000     15.294000000000000     -2.328000000000000
O      -1.116000000000000     14.321000000000000     -2.019000000000000
C      -2.445000000000000     14.513999999999999     -2.593000000000000
C      -3.317000000000000     13.407000000000000     -1.948000000000000
O      -2.830000000000000     12.119000000000000     -2.478000000000000
C      -3.737000000000000     10.980000000000000     -2.187000000000000
C      -3.635000000000000     10.071999999999999     -3.416000000000000
O      -3.597000000000000      8.651000000000000     -2.971000000000000
C      -4.101000000000000      7.713000000000000     -3.993000000000000
C      -3.151000000000000      7.623000000000000     -5.179000000000000
O      -2.231000000000000      6.602000000000000     -4.880000000000000
C      -1.168000000000000      6.457000000000000     -5.799000000000000
C       0.146000000000000      5.952000000000000     -5.143000000000000
O       1.187000000000000      7.005000000000000     -5.167000000000000
C       2.386000000000000      6.735000000000000     -4.287000000000000
C       3.355000000000000      7.814000000000000     -4.776000000000000
H       2.725000000000000      9.593999999999999     -2.935000000000000
H       4.327000000000000      9.839000000000000     -2.145000000000000
H       4.026000000000000     10.484000000000000     -5.101000000000000
H       5.313000000000000     10.977000000000000     -4.032000000000000
H       2.222000000000000     12.289999999999999     -5.314000000000000
H       3.796000000000000     13.061999999999999     -5.557000000000000
H       3.231000000000000     14.660000000000000     -3.899000000000000
H       1.914000000000000     14.810000000000000     -5.034000000000000
H       1.509000000000000     14.355000000000000     -1.262000000000000
H       2.031000000000000     15.650000000000000     -2.391000000000000
H      -0.241000000000000     15.696999999999999     -3.342000000000000
H      -0.300000000000000     16.122000000000000     -1.629000000000000
H      -2.836000000000000     15.528000000000000     -2.450000000000000
H      -2.403000000000000     14.224000000000000     -3.650000000000000
H      -4.396000000000000     13.488000000000000     -2.128000000000000
H      -3.126000000000000     13.484999999999999     -0.871000000000000
H      -4.721000000000000     11.436000000000000     -2.023000000000000
H      -3.381000000000000     10.486000000000001     -1.274000000000000
H      -4.369000000000000     10.279000000000000     -4.204000000000000
H      -2.607000000000000     10.214000000000000     -3.770000000000000
H      -5.076000000000000      8.034000000000001     -4.380000000000000
H      -4.236000000000000      6.742000000000000     -3.500000000000000
H      -2.669000000000000      8.557000000000000     -5.493000000000000
H      -3.648000000000000      7.401000000000000     -6.132000000000000
H      -1.375000000000000      5.892000000000000     -6.716000000000000
H      -0.942000000000000      7.423000000000000     -6.267000000000000
H      -0.122000000000000      5.670000000000000     -4.117000000000000
H       0.541000000000000      5.088000000000000     -5.691000000000000
H       2.707000000000000      5.695000000000000     -4.428000000000000
H       2.207000000000000      6.907000000000000     -3.218000000000000
H       2.803000000000000      8.590000000000000     -5.320000000000000
H       4.000000000000000      7.487000000000000     -5.601000000000000
56

O       3.917000000000000      9.507000000000000      1.895000000000000
C       4.042000000000000     10.608000000000001      2.910000000000000
C       3.271000000000000     10.337000000000000      4.265000000000000
O       1.859000000000000      9.827999999999999      4.138000000000000
C       0.993000000000000     10.771000000000001      3.421000000000000
C      -0.545000000000000     10.223000000000001      3.517000000000000
O      -1.361000000000000     10.779000000000000      2.467000000000000
C      -2.331000000000000      9.897000000000000      1.775000000000000
C      -2.846000000000000     10.526000000000000      0.532000000000000
O      -3.837000000000000      9.619000000000000     -0.069000000000000
C      -3.276000000000000      8.528000000000000     -0.817000000000000
C      -3.431000000000000      8.771000000000001     -2.349000000000000
O      -2.940000000000000      7.639000000000000     -3.199000000000000
C      -2.690000000000000      7.990000000000000     -4.563000000000000
C      -1.239000000000000      8.507999999999999     -4.784000000000000
O      -0.284000000000000      7.394000000000000     -4.726000000000000
C       1.085000000000000      7.921000000000000     -5.039000000000000
C       2.155000000000000      6.858000000000000     -4.873000000000000
O       2.547000000000000      6.552000000000000     -3.489000000000000
C       3.209000000000000      7.637000000000000     -2.739000000000000
C       3.788000000000000      7.058000000000000     -1.480000000000000
O       4.064000000000000      8.069000000000001     -0.503000000000000
C       4.550000000000000      7.420000000000000      0.733000000000000
C       4.972000000000000      8.582000000000001      1.807000000000000
H       5.075000000000000     10.843999999999999      3.191000000000000
H       3.540000000000000     11.472000000000000      2.456000000000000
H       3.203000000000000     11.178000000000001      4.965000000000000
H       3.777000000000000      9.592000000000001      4.892000000000000
H       1.226000000000000     10.821000000000000      2.350000000000000
H       1.146000000000000     11.760000000000000      3.871000000000000
H      -0.483000000000000      9.135000000000000      3.394000000000000
H      -1.106000000000000     10.468000000000000      4.428000000000000
H      -1.703000000000000      9.060000000000000      1.447000000000000
H      -3.188000000000000      9.638999999999999      2.410000000000000
H      -2.103000000000000     10.725000000000000     -0.251000000000000
H      -3.289000000000000     11.471000000000000      0.871000000000000
H      -2.244000000000000      8.340000000000000     -0.497000000000000
H      -3.820000000000000      7.655000000000000     -0.435000000000000
H      -2.946000000000000      9.742000000000001     -2.508000000000000
H      -4.491000000000000      8.903000000000000     -2.600000000000000
H      -3.490000000000000      8.648000000000000     -4.922000000000000
H      -2.754000000000000      7.038000000000000     -5.105000000000000
H      -1.246000000000000      9.000999999999999     -5.764000000000000
H      -0.981000000000000      9.297000000000001     -4.067000000000000
H       1.347000000000000      8.651999999999999     -4.263000000000000
H       1.068000000000000      8.410000000000000     -6.021000000000000
H       3.045000000000000      7.286000000000000     -5.350000000000000
H       1.778000000000000      5.942000000000000     -5.346000000000000
H       4.040000000000000      8.064000000000000     -3.314000000000000
H       2.419000000000000      8.335000000000001     -2.436000000000000
H       3.109000000000000      6.333000000000000     -1.017000000000000
H       4.722000000000000      6.557000000000000     -1.763000000000000
H       5.371000000000000      6.717000000000000      0.543000000000000
H       3.735000000000000      6.906000000000000      1.258000000000000
H       5.850000000000000      9.122000000000000      1.430000000000000
H       5.234000000000000      8.154999999999999      2.782000000000000
56

O       1.019000000000000      9.060000000000000     -1.017000000000000
C       0.142000000000000      8.260999999999999     -0.176000000000000
C       0.859000000000000      8.005000000000001      1.211000000000000
O       0.141000000000000      6.917000000000000      1.936000000000000
C      -0.893000000000000      7.582000000000000      2.825000000000000
C      -1.675000000000000      6.426000000000000      3.507000000000000
O      -3.090000000000000      6.604000000000000      3.182000000000000
C      -3.802000000000000      5.376000000000000      3.198000000000000
C      -5.239000000000000      5.420000000000000      2.524000000000000
O      -5.072000000000000      4.924000000000000      1.120000000000000
C      -6.293000000000000      4.924000000000000      0.337000000000000
C      -6.320000000000000      6.245000000000000     -0.527000000000000
O      -6.501000000000000      5.981000000000000     -1.977000000000000
C      -5.403000000000000      5.356000000000000     -2.715000000000000
C      -5.476000000000000      5.763000000000000     -4.164000000000000
O      -4.192000000000000      5.805000000000000     -4.686000000000000
C      -4.106000000000000      5.871000000000000     -6.180000000000000
C      -2.607000000000000      5.886000000000000     -6.529000000000000
O      -2.114000000000000      7.239000000000000     -6.313000000000000
C      -0.746000000000000      7.528000000000000     -6.627000000000000
C       0.261000000000000      7.371000000000000     -5.474000000000000
O       0.247000000000000      8.480000000000000     -4.574000000000000
C       0.914000000000000      8.308999999999999     -3.380000000000000
C       0.523000000000000      9.380000000000001     -2.356000000000000
H      -0.852000000000000      8.701000000000001     -0.027000000000000
H       0.006000000000000      7.318000000000000     -0.718000000000000
H       1.098000000000000      8.940000000000000      1.732000000000000
H       1.872000000000000      7.613000000000000      1.054000000000000
H      -1.500000000000000      8.122000000000000      2.088000000000000
H      -0.293000000000000      8.148999999999999      3.547000000000000
H      -1.251000000000000      5.448000000000000      3.246000000000000
H      -1.462000000000000      6.478000000000000      4.582000000000000
H      -3.156000000000000      4.608000000000000      2.756000000000000
H      -4.004000000000000      5.123000000000000      4.246000000000000
H      -5.647000000000000      6.429000000000000      2.655000000000000
H      -5.803000000000000      4.668000000000000      3.090000000000000
H      -6.275000000000000      4.048000000000000     -0.322000000000000
H      -7.176000000000000      4.921000000000000      0.987000000000000
H      -5.548000000000000      6.988000000000000     -0.290000000000000
H      -7.277000000000000      6.658000000000000     -0.186000000000000
H      -5.465000000000000      4.261000000000000     -2.746000000000000
H      -4.439000000000000      5.728000000000000     -2.347000000000000
H      -6.072000000000000      4.959000000000000     -4.613000000000000
H      -5.994000000000000      6.716000000000000     -4.326000000000000
H      -4.639000000000000      6.720000000000000     -6.624000000000000
H      -4.450000000000000      4.966000000000000     -6.696000000000000
H      -2.562000000000000      5.687000000000000     -7.607000000000000
H      -2.027000000000000      5.168000000000000     -5.936000000000000
H      -0.388000000000000      6.778000000000000     -7.344000000000000
H      -0.607000000000000      8.505000000000001     -7.108000000000000
H       0.195000000000000      6.376000000000000     -5.015000000000000
H       1.217000000000000      7.348000000000000     -6.011000000000000
H       1.966000000000000      8.547000000000001     -3.577000000000000
H       0.648000000000000      7.361000000000000     -2.895000000000000
H      -0.571000000000000      9.400000000000000     -2.274000000000000
H       0.863000000000000     10.382000000000000     -2.646000000000000
56

O       6.142000000000000      2.547000000000000     -7.373000000000000
C       7.050000000000000      3.030000000000000     -6.428000000000000
C       7.201000000000000      4.538000000000000     -6.391000000000000
O       6.861000000000000      4.969000000000000     -5.086000000000000
C       7.450000000000000      6.190000000000000     -4.663000000000000
C       6.617000000000000      7.455000000000000     -5.020000000000000
O       5.645000000000000      7.847000000000000     -3.991000000000000
C       4.731000000000000      8.888000000000000     -4.376000000000000
C       3.296000000000000      8.401000000000000     -4.094000000000000
O       2.411000000000000      9.491000000000000     -4.290000000000000
C       1.407000000000000      9.374000000000001     -5.269000000000000
C       0.266000000000000      8.548999999999999     -4.622000000000000
O      -0.862000000000000      8.326000000000001     -5.520000000000000
C      -1.912000000000000      7.534000000000000     -4.971000000000000
C      -2.728000000000000      6.939000000000000     -6.173000000000000
O      -1.911000000000000      5.923000000000000     -6.831000000000000
C      -2.583000000000000      5.180000000000000     -7.769000000000000
C      -2.059000000000000      3.718000000000000     -7.706000000000000
O      -0.608000000000000      3.602000000000000     -8.031000000000001
C      -0.010000000000000      2.386000000000000     -7.630000000000000
C       1.544000000000000      2.435000000000000     -8.105000000000000
O       2.474000000000000      1.743000000000000     -7.193000000000000
C       3.848000000000000      1.699000000000000     -7.666000000000000
C       4.765000000000000      2.638000000000000     -6.855000000000000
H       6.745000000000000      2.640000000000000     -5.449000000000000
H       8.093000000000000      2.701000000000000     -6.520000000000000
H       6.534000000000000      5.057000000000000     -7.089000000000000
H       8.234999999999999      4.818000000000000     -6.627000000000000
H       8.481999999999999      6.319000000000000     -5.014000000000000
H       7.463000000000000      6.197000000000000     -3.566000000000000
H       7.300000000000000      8.292000000000000     -5.213000000000000
H       6.200000000000000      7.107000000000000     -5.973000000000000
H       4.918000000000000      9.778000000000000     -3.762000000000000
H       4.795000000000000      9.087000000000000     -5.453000000000000
H       3.233000000000000      8.067000000000000     -3.051000000000000
H       3.032000000000000      7.558000000000000     -4.746000000000000
H       1.028000000000000     10.339000000000000     -5.628000000000000
H       1.734000000000000      8.868000000000000     -6.186000000000000
H       0.020000000000000      9.108000000000001     -3.711000000000000
H       0.670000000000000      7.585000000000000     -4.288000000000000
H      -2.577000000000000      8.111000000000001     -4.317000000000000
H      -1.442000000000000      6.720000000000000     -4.404000000000000
H      -3.581000000000000      6.404000000000000     -5.738000000000000
H      -3.022000000000000      7.741000000000000     -6.861000000000000
H      -2.363000000000000      5.518000000000000     -8.789999999999999
H      -3.641000000000000      5.192000000000000     -7.477000000000000
H      -2.572000000000000      3.138000000000000     -8.483000000000001
H      -2.259000000000000      3.332000000000000     -6.699000000000000
H      -0.042000000000000      2.230000000000000     -6.544000000000000
H      -0.600000000000000      1.612000000000000     -8.135000000000000
H       1.600000000000000      1.984000000000000     -9.103000000000000
H       1.840000000000000      3.474000000000000     -8.298000000000000
H       3.954000000000000      1.945000000000000     -8.730000000000000
H       4.243000000000000      0.676000000000000     -7.649000000000000
H       4.581000000000000      2.312000000000000     -5.824000000000000
H       4.361000000000000      3.636000000000000     -7.066000000000000
56

O       7.103000000000000      1.337000000000000      1.480000000000000
C       7.785000000000000      1.775000000000000      2.708000000000000
C       7.215000000000000      3.082000000000000      3.293000000000000
O       5.776000000000000      2.747000000000000      3.483000000000000
C       5.045000000000000      3.598000000000000      4.447000000000000
C       4.616000000000000      4.875000000000000      3.631000000000000
O       3.863000000000000      4.550000000000000      2.402000000000000
C       3.098000000000000      5.696000000000000      1.860000000000000
C       3.878000000000000      6.492000000000000      0.794000000000000
O       3.174000000000000      6.346000000000000     -0.465000000000000
C       3.666000000000000      7.140000000000000     -1.583000000000000
C       2.880000000000000      6.915000000000000     -2.919000000000000
O       3.773000000000000      6.579000000000000     -3.991000000000000
C       3.285000000000000      6.479000000000000     -5.317000000000000
C       3.515000000000000      4.935000000000000     -5.797000000000000
O       4.918000000000000      4.569000000000000     -6.069000000000000
C       5.141000000000000      3.183000000000000     -6.526000000000000
C       5.243000000000000      2.178000000000000     -5.410000000000000
O       6.546000000000000      2.271000000000000     -4.741000000000000
C       6.819000000000000      1.181000000000000     -3.785000000000000
C       8.042999999999999      1.622000000000000     -2.918000000000000
O       8.372999999999999      0.479000000000000     -1.995000000000000
C       7.458000000000000      0.374000000000000     -0.806000000000000
C       8.035000000000000      1.304000000000000      0.339000000000000
H       7.691000000000000      1.021000000000000      3.499000000000000
H       8.856000000000000      1.926000000000000      2.521000000000000
H       7.368000000000000      4.006000000000000      2.722000000000000
H       7.772000000000000      3.190000000000000      4.232000000000000
H       5.683000000000000      3.808000000000000      5.314000000000000
H       4.099000000000000      3.146000000000000      4.771000000000000
H       4.083000000000000      5.597000000000000      4.263000000000000
H       5.570000000000000      5.314000000000000      3.314000000000000
H       2.091000000000000      5.427000000000000      1.518000000000000
H       2.887000000000000      6.421000000000000      2.656000000000000
H       4.918000000000000      6.171000000000000      0.654000000000000
H       3.872000000000000      7.582000000000000      0.919000000000000
H       3.556000000000000      8.201000000000001     -1.324000000000000
H       4.731000000000000      6.892000000000000     -1.660000000000000
H       2.258000000000000      7.775000000000000     -3.196000000000000
H       2.106000000000000      6.138000000000000     -2.890000000000000
H       3.740000000000000      7.267000000000000     -5.931000000000000
H       2.201000000000000      6.643000000000000     -5.307000000000000
H       3.083000000000000      4.286000000000000     -5.025000000000000
H       2.891000000000000      4.745000000000000     -6.679000000000000
H       6.118000000000000      3.210000000000000     -7.023000000000000
H       4.309000000000000      2.932000000000000     -7.195000000000000
H       5.050000000000000      1.168000000000000     -5.793000000000000
H       4.481000000000000      2.373000000000000     -4.645000000000000
H       5.890000000000000      0.971000000000000     -3.240000000000000
H       7.038000000000000      0.290000000000000     -4.385000000000000
H       8.907000000000000      1.798000000000000     -3.570000000000000
H       7.710000000000000      2.515000000000000     -2.374000000000000
H       7.441000000000000     -0.650000000000000     -0.413000000000000
H       6.435000000000000      0.683000000000000     -1.057000000000000
H       8.199000000000000      2.300000000000000     -0.090000000000000
H       9.002000000000001      0.905000000000000      0.670000000000000
56

O       9.051000000000000      3.459000000000000     -0.471000000000000
C       8.628000000000000      4.710000000000000     -0.974000000000000
C       7.362000000000000      5.130000000000000     -0.108000000000000
O       7.047000000000000      6.491000000000000     -0.376000000000000
C       5.792000000000000      6.711000000000000     -1.044000000000000
C       5.750000000000000      8.119999999999999     -1.616000000000000
O       4.487000000000000      8.417000000000000     -2.202000000000000
C       4.321000000000000      7.789000000000000     -3.520000000000000
C       4.750000000000000      8.840999999999999     -4.529000000000000
O       4.581000000000000      8.214000000000000     -5.878000000000000
C       5.784000000000000      7.492000000000000     -6.300000000000000
C       5.713000000000000      7.076000000000000     -7.788000000000000
O       5.432000000000000      5.648000000000000     -7.926000000000000
C       6.660000000000000      4.816000000000000     -7.774000000000000
C       6.175000000000000      3.323000000000000     -7.664000000000000
O       7.279000000000000      2.378000000000000     -7.739000000000000
C       7.021000000000000      0.953000000000000     -7.500000000000000
C       6.990000000000000      0.684000000000000     -5.987000000000000
O       8.238000000000000      1.106000000000000     -5.341000000000000
C       9.204000000000001      0.216000000000000     -4.845000000000000
C       9.100000000000000      0.204000000000000     -3.246000000000000
O       9.510000000000000      1.506000000000000     -2.760000000000000
C      10.302000000000000      1.523000000000000     -1.547000000000000
C      10.310000000000000      2.996000000000000     -0.950000000000000
H       9.413000000000000      5.476000000000000     -0.960000000000000
H       8.324999999999999      4.639000000000000     -2.026000000000000
H       7.533000000000000      5.047000000000000      0.973000000000000
H       6.470000000000000      4.507000000000000     -0.248000000000000
H       4.906000000000000      6.427000000000000     -0.463000000000000
H       5.777000000000000      6.092000000000000     -1.949000000000000
H       5.910000000000000      8.948000000000000     -0.914000000000000
H       6.580000000000000      8.301000000000000     -2.311000000000000
H       4.871000000000000      6.847000000000000     -3.633000000000000
H       3.282000000000000      7.503000000000000     -3.725000000000000
H       5.786000000000000      9.156000000000001     -4.350000000000000
H       4.084000000000000      9.698000000000000     -4.371000000000000
H       6.614000000000000      8.177000000000000     -6.085000000000000
H       5.812000000000000      6.626000000000000     -5.627000000000000
H       6.645000000000000      7.314000000000000     -8.316000000000001
H       4.923000000000000      7.707000000000000     -8.212000000000000
H       7.230000000000000      5.053000000000000     -6.867000000000000
H       7.318000000000000      4.890000000000000     -8.648999999999999
H       5.583000000000000      3.121000000000000     -6.763000000000000
H       5.493000000000000      3.129000000000000     -8.500999999999999
H       7.796000000000000      0.414000000000000     -8.058999999999999
H       6.059000000000000      0.702000000000000     -7.963000000000000
H       6.713000000000000     -0.360000000000000     -5.791000000000000
H       6.174000000000000      1.271000000000000     -5.548000000000000
H       8.940000000000000     -0.753000000000000     -5.287000000000000
H      10.212999999999999      0.483000000000000     -5.182000000000000
H       8.071999999999999      0.136000000000000     -2.871000000000000
H       9.603000000000000     -0.694000000000000     -2.866000000000000
H      11.279000000000000      1.027000000000000     -1.601000000000000
H       9.814000000000000      0.877000000000000     -0.807000000000000
H      10.750999999999999      3.804000000000000     -1.548000000000000
H      10.929000000000000      3.019000000000000     -0.044000000000000
56

O       2.351000000000000      8.548999999999999      2.641000000000000
C       1.135000000000000      8.776000000000000      1.984000000000000
C       1.387000000000000     10.084000000000000      1.296000000000000
O       2.337000000000000      9.897000000000000      0.192000000000000
C       3.353000000000000     10.932000000000000      0.090000000000000
C       4.308000000000000     10.476000000000001     -1.031000000000000
O       5.391000000000000     11.497999999999999     -1.120000000000000
C       6.418000000000000     11.042999999999999     -2.050000000000000
C       7.798000000000000     11.629000000000000     -1.691000000000000
O       8.829000000000001     10.695000000000000     -2.212000000000000
C       9.291000000000000      9.712999999999999     -1.238000000000000
C       9.718000000000000      8.384000000000000     -1.926000000000000
O      10.420000000000000      7.524000000000000     -0.956000000000000
C      10.382999999999999      6.124000000000000     -1.306000000000000
C       8.992000000000001      5.568000000000000     -0.814000000000000
O       9.085000000000001      4.135000000000000     -0.649000000000000
C       8.603999999999999      3.756000000000000      0.640000000000000
C       7.069000000000000      3.965000000000000      0.693000000000000
O       6.589000000000000      3.540000000000000      2.005000000000000
C       6.087000000000000      4.518000000000000      2.906000000000000
C       4.569000000000000      4.626000000000000      2.771000000000000
O       4.181000000000000      5.931000000000000      3.264000000000000
C       2.792000000000000      6.066000000000000      3.316000000000000
C       2.389000000000000      7.537000000000000      3.696000000000000
H       0.865000000000000      8.007000000000000      1.250000000000000
H       0.330000000000000      9.010000000000000      2.693000000000000
H       1.609000000000000     10.944000000000001      1.939000000000000
H       0.388000000000000     10.345000000000001      0.926000000000000
H       3.975000000000000     10.935000000000000      0.993000000000000
H       2.904000000000000     11.897000000000000     -0.175000000000000
H       4.759000000000000      9.532999999999999     -0.700000000000000
H       3.729000000000000     10.462000000000000     -1.963000000000000
H       6.434000000000000      9.959000000000000     -1.884000000000000
H       6.158000000000000     11.198000000000000     -3.105000000000000
H       7.819000000000000     11.673000000000000     -0.595000000000000
H       7.919000000000000     12.654999999999999     -2.059000000000000
H      10.148000000000000     10.077000000000000     -0.657000000000000
H       8.401000000000000      9.443000000000000     -0.656000000000000
H      10.382999999999999      8.584000000000000     -2.775000000000000
H       8.867000000000001      7.871000000000000     -2.391000000000000
H      11.122000000000000      5.514000000000000     -0.773000000000000
H      10.494999999999999      5.917000000000000     -2.377000000000000
H       8.766000000000000      6.137000000000000      0.097000000000000
H       8.278000000000000      5.844000000000000     -1.600000000000000
H       9.065000000000000      4.475000000000000      1.329000000000000
H       8.933000000000000      2.740000000000000      0.887000000000000
H       6.595000000000000      3.327000000000000     -0.064000000000000
H       6.722000000000000      4.976000000000000      0.445000000000000
H       6.344000000000000      4.267000000000000      3.943000000000000
H       6.556000000000000      5.479000000000000      2.660000000000000
H       4.340000000000000      4.439000000000000      1.715000000000000
H       4.146000000000000      3.775000000000000      3.319000000000000
H       2.415000000000000      5.370000000000000      4.077000000000000
H       2.360000000000000      5.772000000000000      2.352000000000000
H       3.224000000000000      7.867000000000000      4.326000000000000
H       1.469000000000000      7.557000000000000      4.293000000000000
56

O       2.679000000000000      7.685000000000000     -0.404000000000000
C       2.813000000000000      9.095000000000001     -0.468000000000000
C       1.472000000000000      9.675000000000001     -0.968000000000000
O       1.734000000000000     10.928000000000001     -1.644000000000000
C       2.157000000000000     10.862000000000000     -2.977000000000000
C       3.504000000000000     11.670999999999999     -3.153000000000000
O       3.984000000000000     11.441000000000001     -4.484000000000000
C       5.154000000000000     12.166000000000000     -4.829000000000000
C       6.030000000000000     11.289000000000000     -5.693000000000000
O       6.877000000000000     10.369999999999999     -4.978000000000000
C       8.300000000000001     10.561000000000000     -4.860000000000000
C       8.955000000000000      9.757000000000000     -6.007000000000000
O       9.099000000000000      8.335000000000001     -5.764000000000000
C       8.003000000000000      7.439000000000000     -6.184000000000000
C       8.161000000000000      6.135000000000000     -5.364000000000000
O       7.791000000000000      5.001000000000000     -6.184000000000000
C       6.391000000000000      4.866000000000000     -6.389000000000000
C       5.779000000000000      3.857000000000000     -5.382000000000000
O       5.749000000000000      4.327000000000000     -4.013000000000000
C       4.935000000000000      3.405000000000000     -3.215000000000000
C       4.831000000000000      3.830000000000000     -1.771000000000000
O       4.145000000000000      5.064000000000000     -1.571000000000000
C       3.818000000000000      5.414000000000000     -0.225000000000000
C       3.926000000000000      6.988000000000000      0.007000000000000
H       2.856000000000000      9.493000000000000      0.553000000000000
H       3.622000000000000      9.474000000000000     -1.104000000000000
H       0.931000000000000      9.910000000000000     -0.043000000000000
H       0.925000000000000      8.993000000000000     -1.630000000000000
H       1.409000000000000     11.295000000000000     -3.652000000000000
H       2.293000000000000      9.802000000000000     -3.226000000000000
H       3.398000000000000     12.749000000000001     -2.981000000000000
H       4.218000000000000     11.227000000000000     -2.449000000000000
H       4.846000000000000     13.039999999999999     -5.415000000000000
H       5.657000000000000     12.462999999999999     -3.900000000000000
H       6.683000000000000     11.859999999999999     -6.364000000000000
H       5.343000000000000     10.628000000000000     -6.236000000000000
H       8.551000000000000     11.628000000000000     -4.883000000000000
H       8.667999999999999     10.087000000000000     -3.942000000000000
H       9.971000000000000     10.163000000000000     -6.079000000000000
H       8.363000000000000      9.910000000000000     -6.918000000000000
H       8.196000000000000      7.175000000000000     -7.231000000000000
H       7.015000000000000      7.912000000000000     -6.120000000000000
H       9.196000000000000      5.938000000000000     -5.058000000000000
H       7.633000000000000      6.168000000000000     -4.403000000000000
H       6.243000000000000      4.447000000000000     -7.392000000000000
H       5.870000000000000      5.830000000000000     -6.334000000000000
H       6.401000000000000      2.969000000000000     -5.552000000000000
H       4.759000000000000      3.591000000000000     -5.686000000000000
H       3.898000000000000      3.410000000000000     -3.571000000000000
H       5.312000000000000      2.384000000000000     -3.348000000000000
H       4.198000000000000      3.053000000000000     -1.324000000000000
H       5.809000000000000      3.804000000000000     -1.275000000000000
H       4.554000000000000      4.938000000000000      0.435000000000000
H       2.793000000000000      5.100000000000000      0.005000000000000
H       4.864000000000000      7.220000000000000     -0.511000000000000
H       4.153000000000000      7.168000000000000      1.065000000000000
56

O       5.674000000000000      6.097000000000000     -0.690000000000000
C       4.897000000000000      7.289000000000000     -0.221000000000000
C       3.670000000000000      7.450000000000000     -1.154000000000000
O       2.883000000000000      8.635000000000000     -0.722000000000000
C       3.254000000000000      9.923999999999999     -1.247000000000000
C       2.559000000000000     10.044000000000000     -2.579000000000000
O       3.334000000000000     10.862000000000000     -3.388000000000000
C       4.230000000000000     10.112000000000000     -4.298000000000000
C       5.122000000000000     11.081000000000000     -5.159000000000000
O       6.523000000000000     10.629000000000000     -5.134000000000000
C       7.288000000000000     10.928000000000001     -6.348000000000000
C       8.755000000000001     10.461000000000000     -6.190000000000000
O       9.489000000000001     11.401000000000000     -5.401000000000000
C       9.637000000000000     11.097000000000000     -3.982000000000000
C      10.949999999999999     10.349000000000000     -3.641000000000000
O      10.871000000000000      8.882000000000000     -3.943000000000000
C      11.884000000000000      8.061000000000000     -3.402000000000000
C      11.593999999999999      6.545000000000000     -3.678000000000000
O      10.785000000000000      5.930000000000000     -2.573000000000000
C      10.099000000000000      4.695000000000000     -2.878000000000000
C       9.273999999999999      4.228000000000000     -1.623000000000000
O       7.949000000000000      4.712000000000000     -1.567000000000000
C       7.203000000000000      4.225000000000000     -0.415000000000000
C       6.436000000000000      5.403000000000000      0.309000000000000
H       4.440000000000000      7.132000000000000      0.764000000000000
H       5.513000000000000      8.196999999999999     -0.207000000000000
H       2.951000000000000      6.621000000000000     -1.168000000000000
H       4.119000000000000      7.608000000000000     -2.142000000000000
H       4.340000000000000      9.877000000000001     -1.398000000000000
H       2.943000000000000     10.714000000000000     -0.552000000000000
H       2.379000000000000      9.093999999999999     -3.097000000000000
H       1.617000000000000     10.555000000000000     -2.343000000000000
H       4.893000000000000      9.413000000000000     -3.773000000000000
H       3.587000000000000      9.535000000000000     -4.975000000000000
H       5.070000000000000     12.125999999999999     -4.830000000000000
H       4.740000000000000     11.087000000000000     -6.188000000000000
H       6.973000000000000     10.342000000000001     -7.220000000000000
H       7.238000000000000     12.016000000000000     -6.478000000000000
H       9.259000000000000     10.269000000000000     -7.145000000000000
H       8.782000000000000      9.436999999999999     -5.797000000000000
H       8.801000000000000     10.464000000000000     -3.660000000000000
H       9.694000000000001     12.061000000000000     -3.462000000000000
H      11.862000000000000     10.808999999999999     -4.043000000000000
H      11.018000000000001     10.417999999999999     -2.548000000000000
H      12.023999999999999      8.141000000000000     -2.317000000000000
H      12.867000000000001      8.281000000000001     -3.836000000000000
H      12.529999999999999      5.981000000000000     -3.771000000000000
H      10.962999999999999      6.491000000000000     -4.573000000000000
H       9.375000000000000      4.818000000000000     -3.692000000000000
H      10.798999999999999      3.892000000000000     -3.141000000000000
H       9.319000000000001      3.135000000000000     -1.549000000000000
H       9.882000000000000      4.421000000000000     -0.730000000000000
H       7.804000000000000      3.677000000000000      0.322000000000000
H       6.461000000000000      3.523000000000000     -0.817000000000000
H       7.084000000000000      6.101000000000000      0.854000000000000
H       5.699000000000000      5.002000000000000      1.015000000000000
56

O       1.524000000000000     10.789000000000000     -0.791000000000000
C       0.198000000000000     10.119000000000000     -0.818000000000000
C      -0.348000000000000     10.201000000000001     -2.285000000000000
O       0.404000000000000      9.231999999999999     -3.110000000000000
C      -0.212000000000000      8.936000000000000     -4.441000000000000
C       0.711000000000000      7.875000000000000     -5.173000000000000
O       1.012000000000000      8.449999999999999     -6.503000000000000
C       2.192000000000000      7.921000000000000     -7.175000000000000
C       2.733000000000000      8.976000000000001     -8.153000000000000
O       3.671000000000000      9.933000000000000     -7.540000000000000
C       4.220000000000000     11.023000000000000     -8.375000000000000
C       5.297000000000000     11.730000000000000     -7.512000000000000
O       4.697000000000000     12.888999999999999     -6.740000000000000
C       5.502000000000000     14.140000000000001     -6.877000000000000
C       6.520000000000000     14.387000000000000     -5.747000000000000
O       5.833000000000000     15.271000000000001     -4.770000000000000
C       4.987000000000000     14.612000000000000     -3.749000000000000
C       5.833000000000000     13.881000000000000     -2.655000000000000
O       5.285000000000000     14.082000000000001     -1.395000000000000
C       5.893000000000000     13.266999999999999     -0.377000000000000
C       4.930000000000000     13.154000000000000      0.925000000000000
O       3.653000000000000     12.624000000000001      0.594000000000000
C       3.608000000000000     11.263000000000000      0.570000000000000
C       2.118000000000000     10.849000000000000      0.540000000000000
H       0.323000000000000      9.106000000000000     -0.415000000000000
H      -0.503000000000000     10.666000000000000     -0.175000000000000
H      -0.134000000000000     11.228000000000000     -2.607000000000000
H      -1.445000000000000     10.183999999999999     -2.271000000000000
H      -0.421000000000000      9.871000000000000     -4.975000000000000
H      -1.192000000000000      8.461000000000000     -4.312000000000000
H       1.637000000000000      7.748000000000000     -4.599000000000000
H       0.173000000000000      6.923000000000000     -5.263000000000000
H       2.921000000000000      7.605000000000000     -6.419000000000000
H       1.868000000000000      7.035000000000000     -7.736000000000000
H       1.891000000000000      9.507000000000000     -8.614000000000001
H       3.220000000000000      8.440000000000000     -8.977000000000000
H       4.671000000000000     10.579000000000001     -9.271000000000001
H       3.366000000000000     11.635000000000000     -8.691000000000001
H       6.047000000000000     12.032999999999999     -8.253000000000000
H       5.747000000000000     11.037000000000001     -6.792000000000000
H       4.852000000000000     15.021000000000001     -6.934000000000000
H       6.121000000000000     13.946000000000000     -7.761000000000000
H       6.831000000000000     13.509000000000000     -5.168000000000000
H       7.445000000000000     14.855000000000000     -6.106000000000000
H       4.291000000000000     13.824000000000000     -4.061000000000000
H       4.425000000000000     15.417000000000000     -3.259000000000000
H       6.812000000000000     14.372999999999999     -2.601000000000000
H       5.897000000000000     12.802000000000000     -2.841000000000000
H       5.982000000000000     12.238000000000000     -0.746000000000000
H       6.864000000000000     13.707000000000001     -0.118000000000000
H       5.364000000000000     12.512000000000000      1.701000000000000
H       4.860000000000000     14.167999999999999      1.337000000000000
H       3.988000000000000     10.811999999999999      1.494000000000000
H       4.139000000000000     10.910000000000000     -0.323000000000000
H       1.604000000000000     11.504000000000000      1.254000000000000
H       2.014000000000000      9.872000000000000      1.028000000000000
56

O      -3.976000000000000      7.712000000000000     -1.292000000000000
C      -3.888000000000000      6.773000000000000     -2.331000000000000
C      -4.470000000000000      7.333000000000000     -3.642000000000000
O      -3.694000000000000      8.435000000000000     -4.140000000000000
C      -2.379000000000000      8.257000000000000     -4.816000000000000
C      -1.662000000000000      9.609000000000000     -5.000000000000000
O      -1.873000000000000     10.191000000000001     -6.313000000000000
C      -1.417000000000000     11.568000000000000     -6.472000000000000
C      -2.597000000000000     12.648000000000000     -6.182000000000000
O      -2.628000000000000     12.989000000000001     -4.749000000000000
C      -2.129000000000000     14.326000000000001     -4.436000000000000
C      -1.010000000000000     14.291000000000000     -3.302000000000000
O      -1.394000000000000     14.510999999999999     -1.961000000000000
C      -0.336000000000000     14.711000000000000     -0.995000000000000
C      -0.246000000000000     13.646000000000001      0.062000000000000
O      -1.093000000000000     13.891000000000000      1.222000000000000
C      -2.256000000000000     13.067000000000000      1.387000000000000
C      -1.847000000000000     11.688000000000001      1.835000000000000
O      -2.993000000000000     10.875000000000000      1.923000000000000
C      -3.084000000000000      9.821999999999999      2.892000000000000
C      -4.501000000000000      9.270000000000000      2.905000000000000
O      -4.798000000000000      8.215999999999999      1.956000000000000
C      -5.163000000000000      8.728000000000000      0.643000000000000
C      -5.153000000000000      7.562000000000000     -0.433000000000000
H      -2.850000000000000      6.441000000000000     -2.461000000000000
H      -4.355000000000000      5.821000000000000     -2.051000000000000
H      -5.529000000000000      7.583000000000000     -3.503000000000000
H      -4.564000000000000      6.539000000000000     -4.393000000000000
H      -2.514000000000000      7.706000000000000     -5.755000000000000
H      -1.764000000000000      7.602000000000000     -4.186000000000000
H      -2.063000000000000     10.257000000000000     -4.211000000000000
H      -0.584000000000000      9.490000000000000     -4.839000000000000
H      -0.535000000000000     11.848000000000001     -5.883000000000000
H      -1.086000000000000     11.728000000000000     -7.505000000000000
H      -3.549000000000000     12.144000000000000     -6.387000000000000
H      -2.576000000000000     13.481000000000000     -6.897000000000000
H      -1.785000000000000     14.744999999999999     -5.390000000000000
H      -2.977000000000000     14.941000000000001     -4.112000000000000
H      -0.313000000000000     15.102000000000000     -3.546000000000000
H      -0.519000000000000     13.318000000000000     -3.419000000000000
H      -0.470000000000000     15.680000000000000     -0.498000000000000
H       0.669000000000000     14.600000000000000     -1.421000000000000
H      -0.564000000000000     12.680999999999999     -0.352000000000000
H       0.801000000000000     13.503000000000000      0.356000000000000
H      -2.848000000000000     13.041000000000000      0.464000000000000
H      -2.868000000000000     13.545000000000000      2.163000000000000
H      -1.345000000000000     11.786000000000000      2.805000000000000
H      -1.114000000000000     11.180000000000000      1.197000000000000
H      -2.336000000000000      9.029999999999999      2.763000000000000
H      -2.906000000000000     10.351000000000001      3.837000000000000
H      -4.553000000000000      8.807000000000000      3.898000000000000
H      -5.346000000000000      9.965999999999999      2.833000000000000
H      -4.393000000000000      9.432000000000000      0.304000000000000
H      -6.122000000000000      9.259000000000000      0.620000000000000
H      -6.057000000000000      7.564000000000000     -1.053000000000000
H      -5.178000000000000      6.622000000000000      0.132000000000000
56

O       1.504000000000000      7.160000000000000      3.220000000000000
C       0.480000000000000      6.694000000000000      2.280000000000000
C       0.982000000000000      5.669000000000000      1.273000000000000
O       1.909000000000000      6.299000000000000      0.394000000000000
C       2.059000000000000      5.653000000000000     -0.888000000000000
C       1.108000000000000      6.237000000000000     -1.938000000000000
O       1.905000000000000      6.568000000000000     -3.035000000000000
C       2.726000000000000      7.835000000000000     -2.804000000000000
C       1.845000000000000      9.057000000000000     -3.199000000000000
O       2.703000000000000     10.036000000000000     -3.938000000000000
C       3.592000000000000     10.789999999999999     -3.129000000000000
C       2.848000000000000     12.000999999999999     -2.488000000000000
O       3.637000000000000     12.499000000000001     -1.396000000000000
C       2.954000000000000     13.542000000000000     -0.634000000000000
C       3.924000000000000     14.143000000000001      0.404000000000000
O       4.666000000000000     13.037000000000001      1.075000000000000
C       5.538000000000000     13.566000000000001      2.125000000000000
C       5.994000000000000     12.425000000000001      3.170000000000000
O       4.835000000000000     11.994999999999999      3.899000000000000
C       4.926000000000000     10.722000000000000      4.527000000000000
C       3.564000000000000     10.282000000000000      5.186000000000000
O       3.489000000000000      8.837000000000000      5.012000000000000
C       2.221000000000000      8.238000000000000      5.281000000000000
C       1.208000000000000      8.234000000000000      4.172000000000000
H      -0.207000000000000      6.056000000000000      2.851000000000000
H      -0.003000000000000      7.551000000000000      1.795000000000000
H       0.119000000000000      5.291000000000000      0.711000000000000
H       1.470000000000000      4.791000000000000      1.716000000000000
H       1.886000000000000      4.579000000000000     -0.750000000000000
H       3.107000000000000      5.845000000000000     -1.151000000000000
H       0.330000000000000      5.554000000000000     -2.302000000000000
H       0.621000000000000      7.107000000000000     -1.482000000000000
H       3.142000000000000      7.854000000000000     -1.789000000000000
H       3.625000000000000      7.749000000000000     -3.427000000000000
H       1.379000000000000      9.587000000000000     -2.359000000000000
H       1.138000000000000      8.714000000000000     -3.965000000000000
H       4.031000000000000     10.226000000000001     -2.297000000000000
H       4.436000000000000     11.132000000000000     -3.740000000000000
H       1.903000000000000     11.600000000000000     -2.103000000000000
H       2.547000000000000     12.730000000000000     -3.250000000000000
H       2.081000000000000     13.138999999999999     -0.107000000000000
H       2.582000000000000     14.366000000000000     -1.256000000000000
H       4.625000000000000     14.856000000000000     -0.048000000000000
H       3.264000000000000     14.654000000000000      1.116000000000000
H       4.964000000000000     14.377000000000001      2.589000000000000
H       6.519000000000000     13.980000000000000      1.861000000000000
H       6.789000000000000     12.835000000000001      3.806000000000000
H       6.462000000000000     11.617000000000001      2.594000000000000
H       5.320000000000000      9.955000000000000      3.848000000000000
H       5.706000000000000     10.832000000000001      5.291000000000000
H       3.583000000000000     10.496000000000000      6.262000000000000
H       2.769000000000000     10.893000000000001      4.741000000000000
H       1.754000000000000      8.644000000000000      6.187000000000000
H       2.406000000000000      7.190000000000000      5.547000000000000
H       1.208000000000000      9.231999999999999      3.717000000000000
H       0.225000000000000      7.998000000000000      4.599000000000000
56

O       4.130000000000000      7.754000000000000      7.737000000000000
C       2.700000000000000      7.773000000000000      8.087000000000000
C       2.002000000000000      6.864000000000000      7.072000000000000
O       2.239000000000000      7.467000000000000      5.740000000000000
C       1.110000000000000      7.376000000000000      4.843000000000000
C       1.383000000000000      8.028000000000000      3.486000000000000
O       2.591000000000000      7.543000000000000      2.827000000000000
C       2.866000000000000      8.292000000000000      1.551000000000000
C       4.103000000000000      7.652000000000000      0.881000000000000
O       4.448000000000000      8.413000000000000     -0.301000000000000
C       5.575000000000000      9.345000000000001     -0.155000000000000
C       6.946000000000000      8.589000000000000     -0.216000000000000
O       7.952000000000000      9.536000000000000      0.212000000000000
C       9.038000000000000      8.968000000000000      1.006000000000000
C       8.574000000000000      8.936999999999999      2.542000000000000
O       8.446000000000000     10.294000000000000      2.984000000000000
C       9.417000000000000     10.677000000000000      3.954000000000000
C       9.108000000000001     10.191000000000001      5.388000000000000
O       8.208000000000000     10.997000000000000      6.067000000000000
C       8.329000000000001     11.145000000000000      7.534000000000000
C       7.482000000000000     10.016999999999999      8.212999999999999
O       6.108000000000000     10.225000000000000      7.983000000000000
C       5.254000000000000      9.592000000000001      9.050000000000001
C       5.055000000000000      8.018000000000001      8.798000000000000
H       2.511000000000000      7.385000000000000      9.095000000000001
H       2.379000000000000      8.815000000000000      7.964000000000000
H       0.938000000000000      6.722000000000000      7.298000000000000
H       2.510000000000000      5.907000000000000      7.240000000000000
H       0.198000000000000      7.811000000000000      5.270000000000000
H       0.968000000000000      6.302000000000000      4.673000000000000
H       0.570000000000000      7.896000000000000      2.761000000000000
H       1.493000000000000      9.109999999999999      3.628000000000000
H       2.071000000000000      8.144000000000000      0.810000000000000
H       2.927000000000000      9.368000000000000      1.754000000000000
H       3.862000000000000      6.653000000000000      0.496000000000000
H       4.907000000000000      7.537000000000000      1.619000000000000
H       5.527000000000000     10.069000000000001     -0.977000000000000
H       5.416000000000000      9.903000000000000      0.776000000000000
H       7.211000000000000      8.151000000000000     -1.186000000000000
H       6.862000000000000      7.723000000000000      0.452000000000000
H       9.933000000000000      9.565000000000000      0.792000000000000
H       9.379000000000000      8.007000000000000      0.600000000000000
H       7.625000000000000      8.401000000000000      2.669000000000000
H       9.379000000000000      8.451000000000001      3.106000000000000
H       9.394000000000000     11.769000000000000      4.059000000000000
H      10.414999999999999     10.337999999999999      3.649000000000000
H      10.069000000000001     10.195000000000000      5.916000000000000
H       8.787000000000001      9.145000000000000      5.318000000000000
H       9.361000000000001     10.959000000000000      7.855000000000000
H       7.963000000000000     12.157000000000000      7.748000000000000
H       7.683000000000000      9.086000000000000      7.669000000000000
H       7.707000000000000      9.865000000000000      9.276000000000000
H       4.283000000000000     10.103000000000000      9.026999999999999
H       5.627000000000000      9.742000000000001     10.070000000000000
H       4.674000000000000      7.510000000000000      9.692000000000000
H       6.076000000000000      7.675000000000000      8.590999999999999
56

O      -3.384000000000000     11.175000000000001      3.216000000000000
C      -3.654000000000000      9.772000000000000      3.544000000000000
C      -3.748000000000000      9.071000000000000      2.218000000000000
O      -2.453000000000000      9.061000000000000      1.635000000000000
C      -2.291000000000000      8.050000000000001      0.565000000000000
C      -0.818000000000000      7.559000000000000      0.461000000000000
O      -0.280000000000000      7.146000000000000      1.731000000000000
C       0.584000000000000      5.991000000000000      1.589000000000000
C       1.999000000000000      6.551000000000000      1.249000000000000
O       2.958000000000000      6.022000000000000      2.155000000000000
C       2.863000000000000      6.356000000000000      3.588000000000000
C       4.246000000000000      6.794000000000000      4.142000000000000
O       4.077000000000000      6.802000000000000      5.551000000000000
C       4.264000000000000      8.016999999999999      6.354000000000000
C       2.960000000000000      8.776999999999999      6.289000000000000
O       3.189000000000000     10.289999999999999      6.476000000000000
C       2.858000000000000     10.726000000000001      7.770000000000000
C       1.319000000000000     10.962999999999999      7.825000000000000
O       0.900000000000000     12.195000000000000      7.109000000000000
C      -0.551000000000000     12.189000000000000      7.143000000000000
C      -1.076000000000000     13.279999999999999      6.125000000000000
O      -1.829000000000000     12.673000000000000      5.047000000000000
C      -3.197000000000000     12.334000000000000      5.383000000000000
C      -4.033000000000000     12.218999999999999      4.079000000000000
H      -2.895000000000000      9.420999999999999      4.253000000000000
H      -4.553000000000000      9.635000000000000      4.157000000000000
H      -4.422000000000000      9.648000000000000      1.573000000000000
H      -4.214000000000000      8.077999999999999      2.226000000000000
H      -2.751000000000000      8.448000000000000     -0.348000000000000
H      -2.935000000000000      7.191000000000000      0.791000000000000
H      -0.763000000000000      6.703000000000000     -0.223000000000000
H      -0.213000000000000      8.388999999999999      0.074000000000000
H       0.640000000000000      5.312000000000000      2.449000000000000
H       0.248000000000000      5.327000000000000      0.784000000000000
H       2.074000000000000      7.645000000000000      1.210000000000000
H       2.376000000000000      6.170000000000000      0.291000000000000
H       2.146000000000000      7.173000000000000      3.735000000000000
H       2.468000000000000      5.484000000000000      4.124000000000000
H       4.354000000000000      7.822000000000000      3.774000000000000
H       5.048000000000000      6.186000000000000      3.705000000000000
H       5.121000000000000      8.631000000000000      6.050000000000000
H       4.352000000000000      7.722000000000000      7.407000000000000
H       2.559000000000000      8.536000000000000      5.296000000000000
H       2.301000000000000      8.365000000000000      7.064000000000000
H       3.422000000000000     11.638999999999999      7.996000000000000
H       3.140000000000000      9.991000000000000      8.534000000000001
H       0.853000000000000     10.997999999999999      8.818000000000000
H       0.935000000000000     10.082000000000001      7.296000000000000
H      -0.979000000000000     11.217000000000001      6.868000000000000
H      -0.840000000000000     12.412000000000001      8.178000000000001
H      -1.624000000000000     14.081000000000000      6.638000000000000
H      -0.184000000000000     13.725000000000000      5.667000000000000
H      -3.568000000000000     13.071000000000000      6.105000000000000
H      -3.304000000000000     11.366000000000000      5.888000000000000
H      -4.075000000000000     13.169000000000000      3.532000000000000
H      -5.067000000000000     12.025000000000000      4.390000000000000
56

O      -5.999000000000000      6.892000000000000      2.540000000000000
C      -4.990000000000000      7.427000000000000      1.637000000000000
C      -3.589000000000000      6.984000000000000      2.091000000000000
O      -3.278000000000000      7.572000000000000      3.349000000000000
C      -2.090000000000000      8.451000000000001      3.382000000000000
C      -1.657000000000000      8.763999999999999      4.813000000000000
O      -2.131000000000000     10.045999999999999      5.330000000000000
C      -2.376000000000000      9.996000000000000      6.738000000000000
C      -3.186000000000000     11.240000000000000      7.218000000000000
O      -3.069000000000000     11.164000000000000      8.672000000000001
C      -4.009000000000000     10.329000000000001      9.462999999999999
C      -5.282000000000000     11.070000000000000      9.866000000000000
O      -6.134000000000000      9.996000000000000     10.398000000000000
C      -7.536000000000000     10.276999999999999     10.536000000000000
C      -8.477000000000000      9.054000000000000     10.654999999999999
O      -8.162000000000001      8.162000000000001      9.573000000000000
C      -9.070000000000000      7.124000000000000      9.329000000000001
C     -10.081000000000000      7.587000000000000      8.330000000000000
O      -9.506000000000000      7.485000000000000      7.005000000000000
C     -10.561000000000000      7.706000000000000      6.021000000000000
C      -9.981999999999999      8.262000000000000      4.677000000000000
O      -9.430999999999999      7.152000000000000      3.875000000000000
C      -8.050000000000001      6.803000000000000      3.912000000000000
C      -7.300000000000000      7.569000000000000      2.786000000000000
H      -5.067000000000000      7.077000000000000      0.600000000000000
H      -5.005000000000000      8.523999999999999      1.621000000000000
H      -2.859000000000000      7.320000000000000      1.344000000000000
H      -3.519000000000000      5.893000000000000      2.176000000000000
H      -2.314000000000000      9.343999999999999      2.786000000000000
H      -1.280000000000000      7.878000000000000      2.915000000000000
H      -1.993000000000000      7.889000000000000      5.383000000000000
H      -0.560000000000000      8.756000000000000      4.833000000000000
H      -3.000000000000000      9.103999999999999      6.876000000000000
H      -1.422000000000000      9.819000000000001      7.249000000000000
H      -4.233000000000000     11.220000000000001      6.891000000000000
H      -2.723000000000000     12.163000000000000      6.846000000000000
H      -4.384000000000000      9.476000000000001      8.885999999999999
H      -3.527000000000000      9.978000000000000     10.384000000000000
H      -5.714000000000000     11.513000000000000      8.959000000000000
H      -5.118000000000000     11.819000000000001     10.650000000000000
H      -7.736000000000000     10.837999999999999      9.614000000000001
H      -7.607000000000000     10.949999999999999     11.398999999999999
H      -8.313000000000001      8.600000000000000     11.640000000000001
H      -9.548000000000000      9.289999999999999     10.634000000000000
H      -9.414000000000000      6.832000000000000     10.330000000000000
H      -8.584000000000000      6.224000000000000      8.933000000000000
H     -10.269000000000000      8.656000000000001      8.492000000000001
H     -11.023000000000000      7.041000000000000      8.462000000000000
H     -11.095000000000001      6.765000000000000      5.839000000000000
H     -11.202999999999999      8.507999999999999      6.403000000000000
H     -10.754000000000000      8.795999999999999      4.108000000000000
H      -9.156000000000001      8.976000000000001      4.774000000000000
H      -7.898000000000000      5.739000000000000      3.691000000000000
H      -7.602000000000000      7.068000000000000      4.878000000000000
H      -7.143000000000000      8.629000000000000      3.019000000000000
H      -7.911000000000000      7.553000000000000      1.875000000000000
56

O      -5.140000000000000      8.728000000000000      5.805000000000000
C      -4.314000000000000      9.923999999999999      5.451000000000000
C      -4.589000000000000     10.901000000000000      6.628000000000000
O      -3.309000000000000     11.497000000000000      6.988000000000000
C      -3.346000000000000     12.356999999999999      8.166000000000000
C      -2.963000000000000     11.637000000000000      9.509000000000000
O      -2.750000000000000     12.587999999999999     10.548000000000000
C      -1.506000000000000     13.237000000000000     10.669000000000000
C      -0.401000000000000     12.186000000000000     10.778000000000000
O       0.900000000000000     12.837000000000000     10.926000000000000
C       1.982000000000000     11.981000000000000     11.189000000000000
C       2.490000000000000     11.444000000000001      9.830000000000000
O       1.811000000000000     10.160000000000000      9.531000000000001
C       2.449000000000000      8.959000000000000     10.106999999999999
C       2.192000000000000      7.698000000000000      9.246000000000000
O       1.006000000000000      6.934000000000000      9.792000000000000
C       0.707000000000000      5.804000000000000      8.964000000000000
C      -0.736000000000000      5.275000000000000      9.343999999999999
O      -1.576000000000000      5.393000000000000      8.166000000000000
C      -2.777000000000000      4.665000000000000      8.255000000000001
C      -3.527000000000000      4.674000000000000      6.905000000000000
O      -3.774000000000000      5.958000000000000      6.510000000000000
C      -5.027000000000000      6.229000000000000      5.823000000000000
C      -5.091000000000000      7.561000000000000      4.928000000000000
H      -3.261000000000000      9.622000000000000      5.386000000000000
H      -4.567000000000000     10.257000000000000      4.437000000000000
H      -5.014000000000000     10.414000000000000      7.515000000000000
H      -5.253000000000000     11.657999999999999      6.192000000000000
H      -4.338000000000000     12.811000000000000      8.273999999999999
H      -2.522000000000000     13.068000000000000      8.029999999999999
H      -3.805000000000000     10.965000000000000      9.718000000000000
H      -2.135000000000000     10.938000000000001      9.339000000000000
H      -1.307000000000000     13.949999999999999      9.859000000000000
H      -1.514000000000000     13.773999999999999     11.625000000000000
H      -0.324000000000000     11.515000000000001      9.913000000000000
H      -0.550000000000000     11.577000000000000     11.678000000000001
H       2.888000000000000     12.525000000000000     11.484999999999999
H       1.754000000000000     11.214000000000000     11.939000000000000
H       3.574000000000000     11.289999999999999      9.890000000000001
H       2.380000000000000     12.241000000000000      9.085000000000001
H       2.189000000000000      8.746000000000000     11.151000000000000
H       3.543000000000000      9.002000000000001     10.163000000000000
H       1.953000000000000      8.105000000000000      8.255000000000001
H       3.024000000000000      6.983000000000000      9.269000000000000
H       1.386000000000000      4.997000000000000      9.265000000000001
H       0.922000000000000      5.957000000000000      7.900000000000000
H      -1.186000000000000      5.754000000000000     10.223000000000001
H      -0.694000000000000      4.203000000000000      9.570000000000000
H      -2.601000000000000      3.604000000000000      8.468999999999999
H      -3.436000000000000      5.056000000000000      9.039999999999999
H      -2.775000000000000      4.231000000000000      6.241000000000000
H      -4.388000000000000      3.997000000000000      6.952000000000000
H      -5.808000000000000      6.306000000000000      6.588000000000000
H      -5.407000000000000      5.433000000000000      5.171000000000000
H      -6.059000000000000      7.641000000000000      4.418000000000000
H      -4.337000000000000      7.690000000000000      4.142000000000000
56

O      -1.307000000000000      5.631000000000000      9.699999999999999
C      -2.427000000000000      5.643000000000000     10.635000000000000
C      -2.709000000000000      7.090000000000000     11.055000000000000
O      -3.579000000000000      7.786000000000000     10.090000000000000
C      -4.257000000000000      9.038000000000000     10.500999999999999
C      -4.961000000000000      9.724000000000000      9.303000000000001
O      -4.853000000000000     11.175000000000001      9.505000000000001
C      -3.737000000000000     11.872999999999999      8.913000000000000
C      -3.971000000000000     12.145000000000000      7.446000000000000
O      -2.729000000000000     12.512000000000000      6.871000000000000
C      -2.817000000000000     13.394000000000000      5.796000000000000
C      -3.553000000000000     12.720000000000001      4.531000000000000
O      -2.900000000000000     11.521000000000001      3.976000000000000
C      -1.607000000000000     11.851000000000001      3.327000000000000
C      -0.671000000000000     10.587999999999999      3.118000000000000
O       0.698000000000000     10.951000000000001      3.372000000000000
C       1.720000000000000      9.914999999999999      3.045000000000000
C       1.989000000000000      8.976000000000001      4.265000000000000
O       0.958000000000000      8.016999999999999      4.551000000000000
C       1.282000000000000      6.709000000000000      5.041000000000000
C       1.661000000000000      6.655000000000000      6.581000000000000
O       0.440000000000000      6.715000000000000      7.226000000000000
C      -0.240000000000000      5.501000000000000      7.503000000000000
C      -1.587000000000000      5.778000000000000      8.329000000000001
H      -3.323000000000000      5.209000000000000     10.173999999999999
H      -2.267000000000000      5.022000000000000     11.525000000000000
H      -1.715000000000000      7.536000000000000     11.186999999999999
H      -3.231000000000000      7.055000000000000     12.019000000000000
H      -3.577000000000000      9.754000000000000     10.981000000000000
H      -5.011000000000000      8.746000000000000     11.243000000000000
H      -4.524000000000000      9.414999999999999      8.345000000000001
H      -5.985000000000000      9.330000000000000      9.308000000000000
H      -3.598000000000000     12.810000000000000      9.465999999999999
H      -2.824000000000000     11.268000000000001      8.957000000000001
H      -4.682000000000000     12.980000000000000      7.469000000000000
H      -4.434000000000000     11.340999999999999      6.861000000000000
H      -3.336000000000000     14.305000000000000      6.119000000000000
H      -1.834000000000000     13.709000000000000      5.423000000000000
H      -3.560000000000000     13.407999999999999      3.677000000000000
H      -4.595000000000000     12.611000000000001      4.858000000000000
H      -1.000000000000000     12.593000000000000      3.859000000000000
H      -1.761000000000000     12.215000000000000      2.303000000000000
H      -1.008000000000000      9.811999999999999      3.815000000000000
H      -0.716000000000000     10.141000000000000      2.117000000000000
H       2.636000000000000     10.440000000000000      2.748000000000000
H       1.419000000000000      9.226000000000001      2.246000000000000
H       2.107000000000000      9.656000000000001      5.118000000000000
H       2.994000000000000      8.545999999999999      4.171000000000000
H       0.499000000000000      5.968000000000000      4.835000000000000
H       2.138000000000000      6.439000000000000      4.410000000000000
H       2.235000000000000      5.761000000000000      6.855000000000000
H       2.265000000000000      7.499000000000000      6.938000000000000
H       0.417000000000000      4.853000000000000      8.096000000000000
H      -0.431000000000000      5.043000000000000      6.524000000000000
H      -2.421000000000000      5.095000000000000      8.128000000000000
H      -1.963000000000000      6.796000000000000      8.170000000000000
56

O       1.100000000000000      6.383000000000000      1.783000000000000
C       0.982000000000000      6.546000000000000      3.249000000000000
C       1.570000000000000      7.897000000000000      3.695000000000000
O       0.682000000000000      8.952999999999999      3.262000000000000
C      -0.353000000000000      9.326000000000001      4.151000000000000
C      -0.619000000000000     10.878000000000000      4.057000000000000
O      -0.237000000000000     11.343000000000000      2.708000000000000
C      -0.544000000000000     12.696000000000000      2.499000000000000
C      -1.951000000000000     12.718000000000000      1.808000000000000
O      -1.750000000000000     12.819000000000001      0.370000000000000
C      -2.787000000000000     13.375999999999999     -0.451000000000000
C      -4.135000000000000     12.477000000000000     -0.366000000000000
O      -4.281000000000000     11.548000000000000     -1.486000000000000
C      -5.344000000000000     10.603999999999999     -1.333000000000000
C      -5.783000000000000      9.895000000000000     -2.649000000000000
O      -4.979000000000000      8.722000000000000     -2.875000000000000
C      -5.565000000000000      7.481000000000000     -2.373000000000000
C      -4.480000000000000      6.341000000000000     -2.455000000000000
O      -3.299000000000000      6.609000000000000     -1.611000000000000
C      -1.993000000000000      6.080000000000000     -1.943000000000000
C      -1.807000000000000      4.709000000000000     -1.218000000000000
O      -1.991000000000000      4.867000000000000      0.241000000000000
C      -0.793000000000000      4.926000000000000      0.995000000000000
C      -0.162000000000000      6.308000000000000      1.086000000000000
H      -0.034000000000000      6.540000000000000      3.663000000000000
H       1.585000000000000      5.791000000000000      3.768000000000000
H       2.587000000000000      8.036000000000000      3.308000000000000
H       1.639000000000000      7.781000000000000      4.783000000000000
H      -0.021000000000000      9.172000000000001      5.185000000000000
H      -1.313000000000000      8.824999999999999      3.975000000000000
H      -1.700000000000000     11.037000000000001      4.147000000000000
H       0.045000000000000     11.335000000000001      4.801000000000000
H      -0.481000000000000     13.220000000000001      3.462000000000000
H       0.265000000000000     13.112000000000000      1.887000000000000
H      -2.421000000000000     13.667999999999999      2.092000000000000
H      -2.543000000000000     11.833000000000000      2.075000000000000
H      -2.948000000000000     14.364000000000001     -0.001000000000000
H      -2.389000000000000     13.522000000000000     -1.462000000000000
H      -4.911000000000000     13.252000000000001     -0.346000000000000
H      -4.226000000000000     11.949000000000000      0.591000000000000
H      -6.284000000000000     11.102000000000000     -1.063000000000000
H      -5.104000000000000      9.834000000000000     -0.590000000000000
H      -6.841000000000000      9.605000000000000     -2.643000000000000
H      -5.631000000000000     10.542999999999999     -3.521000000000000
H      -6.446000000000000      7.125000000000000     -2.921000000000000
H      -5.898000000000000      7.533000000000000     -1.329000000000000
H      -4.083000000000000      6.144000000000000     -3.459000000000000
H      -5.005000000000000      5.424000000000000     -2.161000000000000
H      -1.929000000000000      5.902000000000000     -3.024000000000000
H      -1.218000000000000      6.827000000000000     -1.730000000000000
H      -2.469000000000000      3.914000000000000     -1.581000000000000
H      -0.809000000000000      4.376000000000000     -1.529000000000000
H      -0.048000000000000      4.198000000000000      0.651000000000000
H      -1.058000000000000      4.603000000000000      2.010000000000000
H      -0.887000000000000      7.035000000000000      1.473000000000000
H       0.020000000000000      6.613000000000000      0.048000000000000
56

O       7.836000000000000      5.828000000000000      2.306000000000000
C       8.404000000000000      6.879000000000000      3.173000000000000
C       7.864000000000000      8.313000000000001      2.857000000000000
O       8.016999999999999      8.673999999999999      1.450000000000000
C       8.887000000000000      9.779999999999999      1.168000000000000
C       8.289000000000000     11.212000000000000      1.298000000000000
O       6.952000000000000     11.327000000000000      0.606000000000000
C       6.966000000000000     11.284000000000001     -0.905000000000000
C       5.797000000000000     12.157999999999999     -1.538000000000000
O       4.567000000000000     11.874000000000001     -0.924000000000000
C       3.318000000000000     12.388999999999999     -1.468000000000000
C       2.098000000000000     12.061000000000000     -0.591000000000000
O       1.790000000000000     10.689000000000000     -0.721000000000000
C       0.699000000000000     10.396000000000001     -1.606000000000000
C       0.749000000000000      8.954000000000001     -2.214000000000000
O       1.089000000000000      8.042000000000000     -1.167000000000000
C       1.031000000000000      6.599000000000000     -1.559000000000000
C       2.482000000000000      5.936000000000000     -1.525000000000000
O       2.973000000000000      5.789000000000000     -0.209000000000000
C       2.564000000000000      4.636000000000000      0.478000000000000
C       3.815000000000000      3.778000000000000      0.754000000000000
O       4.554000000000000      4.274000000000000      1.876000000000000
C       5.529000000000000      5.261000000000000      1.495000000000000
C       6.497000000000000      5.424000000000000      2.700000000000000
H       8.259000000000000      6.670000000000000      4.240000000000000
H       9.481999999999999      6.956000000000000      2.989000000000000
H       8.443000000000000      9.028000000000000      3.455000000000000
H       6.787000000000000      8.375000000000000      3.059000000000000
H       9.257999999999999      9.747999999999999      0.136000000000000
H       9.815000000000000      9.641000000000000      1.736000000000000
H       8.231000000000000     11.462000000000000      2.365000000000000
H       8.999000000000001     11.872000000000000      0.784000000000000
H       7.914000000000000     11.736000000000001     -1.222000000000000
H       6.776000000000000     10.236000000000001     -1.170000000000000
H       5.750000000000000     11.875000000000000     -2.596000000000000
H       6.087000000000000     13.215999999999999     -1.507000000000000
H       3.356000000000000     13.484000000000000     -1.509000000000000
H       3.001000000000000     11.959000000000000     -2.427000000000000
H       1.332000000000000     12.738000000000000     -0.989000000000000
H       2.308000000000000     12.340000000000000      0.449000000000000
H       0.536000000000000     11.100000000000000     -2.431000000000000
H      -0.217000000000000     10.368000000000000     -1.004000000000000
H      -0.192000000000000      8.714000000000000     -2.725000000000000
H       1.399000000000000      8.952000000000000     -3.098000000000000
H       0.626000000000000      6.590000000000000     -2.579000000000000
H       0.448000000000000      6.077000000000000     -0.790000000000000
H       3.180000000000000      6.530000000000000     -2.128000000000000
H       2.342000000000000      4.962000000000000     -2.010000000000000
H       2.100000000000000      4.967000000000000      1.415000000000000
H       1.783000000000000      4.080000000000000     -0.055000000000000
H       3.628000000000000      2.737000000000000      1.043000000000000
H       4.439000000000000      3.744000000000000     -0.147000000000000
H       5.123000000000000      6.260000000000000      1.290000000000000
H       6.121000000000000      4.968000000000000      0.619000000000000
H       6.623000000000000      4.451000000000000      3.192000000000000
H       6.095000000000000      6.145000000000000      3.423000000000000
56

O       7.939000000000000     10.190000000000000     -3.054000000000000
C       8.861000000000001      9.465999999999999     -2.162000000000000
C       9.690000000000000     10.471000000000000     -1.303000000000000
O       8.975000000000000     10.750999999999999     -0.083000000000000
C       9.826000000000001     10.810000000000000      1.064000000000000
C       9.843000000000000      9.301000000000000      1.648000000000000
O       9.042999999999999      9.255000000000001      2.882000000000000
C       9.164000000000000      8.116000000000000      3.690000000000000
C       7.844000000000000      7.311000000000000      3.551000000000000
O       6.835000000000000      8.012000000000000      4.283000000000000
C       6.476000000000000      7.368000000000000      5.539000000000000
C       5.206000000000000      6.527000000000000      5.246000000000000
O       4.091000000000000      7.352000000000000      4.890000000000000
C       4.045000000000000      7.651000000000000      3.457000000000000
C       2.645000000000000      7.376000000000000      2.838000000000000
O       2.619000000000000      7.784000000000000      1.418000000000000
C       1.285000000000000      7.928000000000000      0.808000000000000
C       1.494000000000000      7.529000000000000     -0.717000000000000
O       2.005000000000000      8.699000000000000     -1.380000000000000
C       2.047000000000000      8.576000000000001     -2.829000000000000
C       3.492000000000000      8.260000000000000     -3.329000000000000
O       4.465000000000000      8.920000000000000     -2.536000000000000
C       5.895000000000000      8.891000000000000     -2.967000000000000
C       6.668000000000000     10.183000000000000     -2.503000000000000
H       8.387000000000000      8.730000000000000     -1.500000000000000
H       9.576000000000001      8.960000000000001     -2.823000000000000
H       9.885999999999999     11.398999999999999     -1.855000000000000
H      10.638999999999999     10.006000000000000     -1.007000000000000
H       9.478999999999999     11.566000000000001      1.779000000000000
H      10.830000000000000     11.044000000000000      0.688000000000000
H       9.560000000000000      8.585000000000001      0.866000000000000
H      10.872000000000000      9.063000000000001      1.944000000000000
H       9.827000000000000      7.377000000000000      3.224000000000000
H       9.445000000000000      8.302000000000000      4.734000000000000
H       7.997000000000000      6.304000000000000      3.957000000000000
H       7.602000000000000      7.232000000000000      2.484000000000000
H       7.287000000000000      6.744000000000000      5.934000000000000
H       6.292000000000000      8.137000000000000      6.299000000000000
H       4.939000000000000      6.005000000000000      6.173000000000000
H       5.331000000000000      5.771000000000000      4.461000000000000
H       4.746000000000000      7.000000000000000      2.920000000000000
H       4.258000000000000      8.721000000000000      3.346000000000000
H       2.332000000000000      6.326000000000000      2.890000000000000
H       2.007000000000000      8.090999999999999      3.373000000000000
H       0.983000000000000      8.981999999999999      0.848000000000000
H       0.576000000000000      7.216000000000000      1.249000000000000
H       0.538000000000000      7.216000000000000     -1.153000000000000
H       2.168000000000000      6.664000000000000     -0.742000000000000
H       1.312000000000000      7.862000000000000     -3.220000000000000
H       1.715000000000000      9.537000000000001     -3.240000000000000
H       3.627000000000000      7.172000000000000     -3.381000000000000
H       3.610000000000000      8.673999999999999     -4.338000000000000
H       6.023000000000000      8.891999999999999     -4.056000000000000
H       6.359000000000000      8.039999999999999     -2.452000000000000
H       6.601000000000000     10.266999999999999     -1.411000000000000
H       6.108000000000000     10.975000000000000     -3.015000000000000
56

O       4.213000000000000      9.689000000000000     -2.908000000000000
C       5.383000000000000     10.436999999999999     -3.210000000000000
C       6.191000000000000     10.718000000000000     -1.854000000000000
O       6.500000000000000     12.172000000000001     -1.975000000000000
C       6.434000000000000     13.055000000000000     -0.782000000000000
C       4.985000000000000     13.596000000000000     -0.510000000000000
O       4.460000000000000     13.212999999999999      0.784000000000000
C       3.950000000000000     14.359000000000000      1.601000000000000
C       2.474000000000000     14.663000000000000      1.355000000000000
O       1.707000000000000     13.618000000000000      2.053000000000000
C       0.551000000000000     14.097000000000000      2.825000000000000
C      -0.460000000000000     12.855000000000000      3.026000000000000
O      -1.167000000000000     12.628000000000000      1.792000000000000
C      -2.217000000000000     11.590000000000000      1.850000000000000
C      -2.631000000000000     11.247000000000000      0.436000000000000
O      -2.065000000000000      9.984000000000000      0.064000000000000
C      -2.499000000000000      9.288000000000000     -1.113000000000000
C      -1.470000000000000      9.510999999999999     -2.201000000000000
O      -0.330000000000000      8.710000000000001     -2.053000000000000
C      -0.175000000000000      7.594000000000000     -2.920000000000000
C       1.044000000000000      6.712000000000000     -2.431000000000000
O       2.209000000000000      7.459000000000000     -2.192000000000000
C       3.195000000000000      7.602000000000000     -3.304000000000000
C       4.354000000000000      8.310000000000000     -2.615000000000000
H       6.029000000000000      9.936000000000000     -3.941000000000000
H       5.115000000000000     11.353000000000000     -3.750000000000000
H       7.152000000000000     10.189000000000000     -1.885000000000000
H       5.685000000000000     10.521000000000001     -0.901000000000000
H       7.045000000000000     13.952999999999999     -0.937000000000000
H       6.873000000000000     12.541000000000000      0.082000000000000
H       4.867000000000000     14.683999999999999     -0.586000000000000
H       4.347000000000000     13.112000000000000     -1.261000000000000
H       3.990000000000000     14.029999999999999      2.647000000000000
H       4.521000000000000     15.289000000000000      1.488000000000000
H       2.257000000000000     14.769000000000000      0.285000000000000
H       2.153000000000000     15.598000000000001      1.829000000000000
H       0.870000000000000     14.397000000000000      3.831000000000000
H       0.056000000000000     14.898999999999999      2.265000000000000
H      -1.169000000000000     13.122000000000000      3.820000000000000
H       0.028000000000000     11.913000000000000      3.307000000000000
H      -3.103000000000000     11.939000000000000      2.395000000000000
H      -1.860000000000000     10.695000000000000      2.375000000000000
H      -3.723000000000000     11.196000000000000      0.344000000000000
H      -2.298000000000000     12.086000000000000     -0.187000000000000
H      -3.496000000000000      9.640000000000001     -1.406000000000000
H      -2.547000000000000      8.218000000000000     -0.878000000000000
H      -1.169000000000000     10.561999999999999     -2.109000000000000
H      -1.835000000000000      9.340000000000000     -3.221000000000000
H      -1.092000000000000      6.999000000000000     -3.010000000000000
H       0.085000000000000      7.961000000000000     -3.921000000000000
H       0.759000000000000      6.116000000000000     -1.556000000000000
H       1.150000000000000      6.169000000000000     -3.378000000000000
H       2.815000000000000      8.201000000000001     -4.142000000000000
H       3.548000000000000      6.607000000000000     -3.600000000000000
H       5.320000000000000      7.925000000000000     -2.963000000000000
H       4.266000000000000      8.161000000000000     -1.531000000000000
56

O       0.241000000000000     12.983000000000001      3.615000000000000
C      -0.487000000000000     13.435000000000000      4.731000000000000
C      -1.565000000000000     12.342000000000001      5.154000000000000
O      -2.526000000000000     12.329000000000001      4.124000000000000
C      -3.887000000000000     12.477000000000000      4.506000000000000
C      -4.523000000000000     11.204000000000001      4.957000000000000
O      -5.790000000000000     10.972000000000000      4.313000000000000
C      -5.790000000000000     10.053000000000001      3.257000000000000
C      -5.901000000000000     10.795000000000000      1.898000000000000
O      -5.749000000000000      9.922000000000001      0.769000000000000
C      -6.359000000000000     10.390000000000001     -0.527000000000000
C      -6.102000000000000      9.298000000000000     -1.536000000000000
O      -4.893000000000000      9.551000000000000     -2.277000000000000
C      -3.644000000000000      9.381000000000000     -1.658000000000000
C      -3.015000000000000      8.013999999999999     -1.990000000000000
O      -1.823000000000000      7.960000000000000     -1.141000000000000
C      -0.602000000000000      7.690000000000000     -1.808000000000000
C       0.527000000000000      7.540000000000000     -0.779000000000000
O       0.577000000000000      8.756000000000000     -0.085000000000000
C       1.607000000000000      8.768000000000001      0.919000000000000
C       2.256000000000000     10.163000000000000      0.922000000000000
O       1.442000000000000     11.076000000000001      1.731000000000000
C       1.166000000000000     10.769000000000000      3.080000000000000
C       1.341000000000000     12.045000000000000      3.883000000000000
H       0.209000000000000     13.657000000000000      5.550000000000000
H      -0.952000000000000     14.395000000000000      4.475000000000000
H      -1.965000000000000     12.446000000000000      6.170000000000000
H      -1.038000000000000     11.381000000000000      5.110000000000000
H      -4.426000000000000     12.708000000000000      3.579000000000000
H      -3.927000000000000     13.311000000000000      5.217000000000000
H      -3.850000000000000     10.342000000000001      4.868000000000000
H      -4.807000000000000     11.250000000000000      6.015000000000000
H      -4.946000000000000      9.356999999999999      3.336000000000000
H      -6.682000000000000      9.435000000000000      3.416000000000000
H      -5.210000000000000     11.641000000000000      1.798000000000000
H      -6.908000000000000     11.230000000000000      1.907000000000000
H      -7.410000000000000     10.617000000000001     -0.308000000000000
H      -5.920000000000000     11.337999999999999     -0.862000000000000
H      -6.941000000000000      9.218000000000000     -2.238000000000000
H      -6.098000000000000      8.361000000000001     -0.964000000000000
H      -3.831000000000000      9.488000000000000     -0.582000000000000
H      -2.982000000000000     10.226000000000001     -1.886000000000000
H      -3.642000000000000      7.177000000000000     -1.657000000000000
H      -2.792000000000000      7.779000000000000     -3.039000000000000
H      -0.308000000000000      8.537000000000001     -2.440000000000000
H      -0.655000000000000      6.767000000000000     -2.399000000000000
H       1.496000000000000      7.386000000000000     -1.270000000000000
H       0.273000000000000      6.751000000000000     -0.061000000000000
H       1.096000000000000      8.587000000000000      1.873000000000000
H       2.348000000000000      7.963000000000000      0.836000000000000
H       3.283000000000000     10.022000000000000      1.281000000000000
H       2.254000000000000     10.494000000000000     -0.124000000000000
H       1.851000000000000     10.051000000000000      3.545000000000000
H       0.117000000000000     10.510000000000000      3.274000000000000
H       2.292000000000000     12.503000000000000      3.584000000000000
H       1.399000000000000     11.760999999999999      4.941000000000000
56

O      -1.533000000000000      4.068000000000000     -5.114000000000000
C      -0.558000000000000      4.834000000000000     -5.785000000000000
C      -0.969000000000000      5.420000000000000     -7.229000000000000
O      -1.797000000000000      6.538000000000000     -6.915000000000000
C      -1.171000000000000      7.882000000000000     -6.741000000000000
C      -1.834000000000000      8.747000000000000     -7.848000000000000
O      -3.130000000000000      9.023999999999999     -7.287000000000000
C      -3.407000000000000     10.317000000000000     -6.704000000000000
C      -4.984000000000000     10.605000000000000     -6.838000000000000
O      -5.590000000000000     10.452999999999999     -5.545000000000000
C      -5.608000000000000     11.688000000000001     -4.701000000000000
C      -4.853000000000000     11.398000000000000     -3.383000000000000
O      -5.882000000000000     11.102000000000000     -2.382000000000000
C      -5.378000000000000     10.500999999999999     -1.213000000000000
C      -6.031000000000000      9.188000000000001     -1.016000000000000
O      -5.149000000000000      8.301000000000000     -0.191000000000000
C      -5.831000000000000      7.059000000000000      0.228000000000000
C      -5.267000000000000      6.008000000000000     -0.743000000000000
O      -3.814000000000000      5.905000000000000     -0.551000000000000
C      -3.327000000000000      4.516000000000000     -0.224000000000000
C      -3.534000000000000      3.562000000000000     -1.409000000000000
O      -2.925000000000000      4.094000000000000     -2.588000000000000
C      -1.502000000000000      3.982000000000000     -2.651000000000000
C      -1.070000000000000      3.296000000000000     -3.987000000000000
H      -0.294000000000000      5.585000000000000     -5.030000000000000
H       0.361000000000000      4.299000000000000     -6.052000000000000
H      -1.505000000000000      4.671000000000000     -7.825000000000000
H      -0.103000000000000      5.775000000000000     -7.801000000000000
H      -0.085000000000000      7.820000000000000     -6.887000000000000
H      -1.462000000000000      8.272000000000000     -5.759000000000000
H      -1.311000000000000      9.696000000000000     -8.019000000000000
H      -1.920000000000000      8.190000000000000     -8.788000000000000
H      -3.000000000000000     10.460000000000001     -5.695000000000000
H      -2.962000000000000     11.026999999999999     -7.412000000000000
H      -5.424000000000000      9.865000000000000     -7.518000000000000
H      -5.183000000000000     11.640000000000001     -7.141000000000000
H      -5.099000000000000     12.502000000000001     -5.231000000000000
H      -6.648000000000000     11.904999999999999     -4.428000000000000
H      -4.169000000000000     12.223000000000001     -3.147000000000000
H      -4.105000000000000     10.598000000000001     -3.451000000000000
H      -5.541000000000000     11.083000000000000     -0.297000000000000
H      -4.294000000000000     10.342000000000001     -1.163000000000000
H      -6.968000000000000      9.430999999999999     -0.499000000000000
H      -6.322000000000000      8.711000000000000     -1.960000000000000
H      -6.924000000000000      7.036000000000000      0.136000000000000
H      -5.588000000000000      6.811000000000000      1.268000000000000
H      -5.433000000000000      6.154000000000000     -1.817000000000000
H      -5.741000000000000      5.055000000000000     -0.478000000000000
H      -2.252000000000000      4.565000000000000     -0.008000000000000
H      -3.911000000000000      4.201000000000000      0.649000000000000
H      -3.173000000000000      2.532000000000000     -1.296000000000000
H      -4.622000000000000      3.558000000000000     -1.544000000000000
H      -1.109000000000000      3.478000000000000     -1.760000000000000
H      -1.081000000000000      4.992000000000000     -2.564000000000000
H      -1.536000000000000      2.304000000000000     -3.963000000000000
H       0.021000000000000      3.182000000000000     -3.997000000000000
56

O      -5.033000000000000      6.306000000000000     -3.163000000000000
C      -4.497000000000000      6.002000000000000     -4.454000000000000
C      -3.278000000000000      6.994000000000000     -4.753000000000000
O      -3.768000000000000      8.335000000000001     -5.037000000000000
C      -2.842000000000000      9.224000000000000     -5.717000000000000
C      -3.520000000000000     10.385999999999999     -6.517000000000000
O      -4.022000000000000     11.368000000000000     -5.554000000000000
C      -3.652000000000000     12.750999999999999     -5.737000000000000
C      -3.768000000000000     13.509000000000000     -4.371000000000000
O      -2.502000000000000     13.210000000000001     -3.763000000000000
C      -2.155000000000000     14.311999999999999     -2.877000000000000
C      -1.079000000000000     13.738000000000000     -1.765000000000000
O      -0.962000000000000     14.691000000000001     -0.698000000000000
C      -1.081000000000000     14.159000000000001      0.603000000000000
C      -2.560000000000000     13.942000000000000      1.098000000000000
O      -3.126000000000000     12.759000000000000      0.489000000000000
C      -2.770000000000000     11.523000000000000      1.138000000000000
C      -3.997000000000000     10.606999999999999      1.312000000000000
O      -3.533000000000000      9.301000000000000      1.655000000000000
C      -4.585000000000000      8.407000000000000      2.016000000000000
C      -5.375000000000000      7.905000000000000      0.757000000000000
O      -4.424000000000000      7.440000000000000     -0.229000000000000
C      -4.876000000000000      6.203000000000000     -0.824000000000000
C      -4.192000000000000      5.858000000000000     -2.149000000000000
H      -4.156000000000000      4.960000000000000     -4.459000000000000
H      -5.261000000000000      6.060000000000000     -5.240000000000000
H      -2.842000000000000      6.609000000000000     -5.683000000000000
H      -2.534000000000000      7.100000000000000     -3.954000000000000
H      -2.331000000000000      8.516999999999999     -6.382000000000000
H      -2.062000000000000      9.670999999999999     -5.088000000000000
H      -2.734000000000000     10.887000000000000     -7.096000000000000
H      -4.404000000000000     10.034000000000001     -7.062000000000000
H      -2.650000000000000     12.851000000000001     -6.172000000000000
H      -4.358000000000000     13.151000000000000     -6.475000000000000
H      -4.631000000000000     13.345000000000001     -3.714000000000000
H      -3.691000000000000     14.593999999999999     -4.515000000000000
H      -1.637000000000000     15.012000000000000     -3.544000000000000
H      -3.010000000000000     14.798000000000000     -2.390000000000000
H      -0.118000000000000     13.425000000000001     -2.191000000000000
H      -1.562000000000000     12.824999999999999     -1.395000000000000
H      -0.641000000000000     14.901000000000000      1.280000000000000
H      -0.615000000000000     13.167000000000000      0.646000000000000
H      -2.613000000000000     13.922000000000001      2.194000000000000
H      -3.124000000000000     14.827000000000000      0.778000000000000
H      -2.276000000000000     11.718999999999999      2.098000000000000
H      -1.964000000000000     11.028000000000000      0.581000000000000
H      -4.590000000000000     10.555999999999999      0.391000000000000
H      -4.620000000000000     11.080000000000000      2.081000000000000
H      -4.172000000000000      7.487000000000000      2.447000000000000
H      -5.259000000000000      8.933999999999999      2.703000000000000
H      -6.063000000000000      7.132000000000000      1.120000000000000
H      -5.863000000000000      8.715000000000000      0.201000000000000
H      -5.958000000000000      6.279000000000000     -0.988000000000000
H      -4.799000000000000      5.346000000000000     -0.144000000000000
H      -4.117000000000000      4.776000000000000     -2.318000000000000
H      -3.196000000000000      6.316000000000000     -2.129000000000000
56

O      -8.659000000000001      4.200000000000000      0.052000000000000
C      -7.851000000000000      5.080000000000000     -0.788000000000000
C      -8.444000000000001      6.519000000000000     -0.743000000000000
O      -7.487000000000000      7.478000000000000     -1.192000000000000
C      -6.450000000000000      8.055999999999999     -0.342000000000000
C      -7.048000000000000      9.206000000000000      0.522000000000000
O      -5.960000000000000      9.983000000000001      1.141000000000000
C      -5.186000000000000      9.583000000000000      2.361000000000000
C      -6.070000000000000      9.877000000000001      3.693000000000000
O      -5.195000000000000      9.802000000000000      4.847000000000000
C      -4.826000000000000      8.465999999999999      5.290000000000000
C      -6.029000000000000      7.894000000000000      6.110000000000000
O      -5.465000000000000      6.799000000000000      6.905000000000000
C      -5.336000000000000      5.522000000000000      6.249000000000000
C      -6.628000000000000      4.645000000000000      6.382000000000000
O      -6.288000000000000      3.173000000000000      6.524000000000000
C      -6.288000000000000      2.379000000000000      5.306000000000000
C      -7.750000000000000      1.967000000000000      4.935000000000000
O      -7.709000000000000      1.212000000000000      3.651000000000000
C      -8.989000000000001      0.696000000000000      3.295000000000000
C      -9.393000000000001      0.923000000000000      1.831000000000000
O      -9.680000000000000      2.322000000000000      1.573000000000000
C     -10.458000000000000      2.592000000000000      0.362000000000000
C      -9.507000000000000      3.316000000000000     -0.676000000000000
H      -6.898000000000000      5.174000000000000     -0.254000000000000
H      -7.732000000000000      4.671000000000000     -1.799000000000000
H      -8.949000000000000      6.720000000000000      0.209000000000000
H      -9.291000000000000      6.514000000000000     -1.441000000000000
H      -5.711000000000000      8.468000000000000     -1.041000000000000
H      -5.915000000000000      7.344000000000000      0.299000000000000
H      -7.704000000000000      9.788000000000000     -0.138000000000000
H      -7.704000000000000      8.753000000000000      1.275000000000000
H      -4.883000000000000      8.535000000000000      2.247000000000000
H      -4.269000000000000     10.180999999999999      2.431000000000000
H      -6.973000000000000      9.255000000000001      3.714000000000000
H      -6.516000000000000     10.879000000000000      3.677000000000000
H      -4.658000000000000      7.746000000000000      4.479000000000000
H      -3.921000000000000      8.507000000000000      5.909000000000000
H      -6.798000000000000      7.532000000000000      5.416000000000000
H      -6.430000000000000      8.597000000000000      6.850000000000000
H      -4.506000000000000      4.961000000000000      6.695000000000000
H      -5.053000000000000      5.712000000000000      5.206000000000000
H      -7.335000000000000      5.010000000000000      7.138000000000000
H      -7.139000000000000      4.760000000000000      5.418000000000000
H      -5.702000000000000      1.476000000000000      5.518000000000000
H      -5.827000000000000      2.920000000000000      4.471000000000000
H      -8.470000000000001      2.789000000000000      4.830000000000000
H      -8.092000000000001      1.302000000000000      5.737000000000000
H      -9.053000000000001     -0.380000000000000      3.502000000000000
H      -9.768000000000001      0.992000000000000      4.008000000000000
H      -8.728999999999999      0.572000000000000      1.031000000000000
H     -10.361000000000001      0.431000000000000      1.681000000000000
H     -11.288000000000000      3.254000000000000      0.638000000000000
H     -10.893000000000001      1.680000000000000     -0.065000000000000
H     -10.101000000000001      3.769000000000000     -1.479000000000000
H      -8.940000000000000      2.537000000000000     -1.201000000000000
56

O      -6.417000000000000      6.044000000000000      3.382000000000000
C      -6.298000000000000      5.835000000000000      1.953000000000000
C      -6.369000000000000      7.227000000000000      1.176000000000000
O      -5.224000000000000      7.432000000000000      0.345000000000000
C      -5.172000000000000      8.351000000000001     -0.734000000000000
C      -4.881000000000000      9.771000000000001     -0.284000000000000
O      -4.228000000000000     10.565000000000000     -1.264000000000000
C      -2.835000000000000     10.500999999999999     -1.379000000000000
C      -2.178000000000000     11.685000000000000     -0.647000000000000
O      -0.717000000000000     11.445000000000000     -0.514000000000000
C      -0.442000000000000     10.352000000000000      0.502000000000000
C       0.439000000000000     10.878000000000000      1.636000000000000
O       1.277000000000000      9.831000000000000      2.242000000000000
C       0.670000000000000      8.646000000000001      2.687000000000000
C       0.260000000000000      8.760000000000000      4.120000000000000
O       0.668000000000000      7.538000000000000      4.825000000000000
C      -0.354000000000000      6.526000000000000      4.712000000000000
C      -1.192000000000000      6.615000000000000      5.920000000000000
O      -2.228000000000000      5.564000000000000      5.922000000000000
C      -3.047000000000000      5.643000000000000      7.048000000000000
C      -4.444000000000000      4.969000000000000      6.752000000000000
O      -5.316000000000000      5.776000000000000      6.001000000000000
C      -6.579000000000000      5.248000000000000      5.602000000000000
C      -6.429000000000000      4.796000000000000      4.138000000000000
H      -5.371000000000000      5.294000000000000      1.723000000000000
H      -7.151000000000000      5.341000000000000      1.471000000000000
H      -6.475000000000000      8.086000000000000      1.850000000000000
H      -7.285000000000000      7.215000000000000      0.573000000000000
H      -6.128000000000000      8.340000000000000     -1.272000000000000
H      -4.337000000000000      8.058000000000000     -1.383000000000000
H      -5.811000000000000     10.314000000000000     -0.074000000000000
H      -4.310000000000000      9.646000000000001      0.645000000000000
H      -2.438000000000000      9.523999999999999     -1.078000000000000
H      -2.569000000000000     10.580000000000000     -2.440000000000000
H      -2.695000000000000     11.815000000000000      0.312000000000000
H      -2.425000000000000     12.526999999999999     -1.305000000000000
H      -1.390000000000000     10.045999999999999      0.959000000000000
H       0.034000000000000      9.512000000000000     -0.020000000000000
H      -0.075000000000000     11.356999999999999      2.479000000000000
H       1.086000000000000     11.618000000000000      1.148000000000000
H       1.330000000000000      7.778000000000000      2.570000000000000
H      -0.289000000000000      8.574000000000000      2.160000000000000
H       0.735000000000000      9.654000000000000      4.542000000000000
H      -0.793000000000000      8.999000000000001      4.315000000000000
H       0.130000000000000      5.570000000000000      4.478000000000000
H      -0.925000000000000      6.714000000000000      3.794000000000000
H      -1.659000000000000      7.606000000000000      5.985000000000000
H      -0.578000000000000      6.447000000000000      6.814000000000000
H      -2.653000000000000      5.000000000000000      7.844000000000000
H      -3.219000000000000      6.682000000000000      7.357000000000000
H      -4.195000000000000      4.007000000000000      6.287000000000000
H      -4.785000000000000      4.834000000000000      7.786000000000000
H      -7.313000000000000      6.064000000000000      5.585000000000000
H      -6.833000000000000      4.366000000000000      6.203000000000000
H      -7.238000000000000      4.146000000000000      3.784000000000000
H      -5.514000000000000      4.202000000000000      4.024000000000000
56

O      -5.411000000000000      1.491000000000000      3.932000000000000
C      -6.743000000000000      1.192000000000000      3.485000000000000
C      -6.807000000000000      0.619000000000000      2.025000000000000
O      -7.732000000000000      1.410000000000000      1.165000000000000
C      -7.133000000000000      1.900000000000000     -0.010000000000000
C      -7.857000000000000      3.183000000000000     -0.364000000000000
O      -7.691000000000000      3.575000000000000     -1.727000000000000
C      -6.749000000000000      4.643000000000000     -2.021000000000000
C      -7.323000000000000      5.955000000000000     -1.389000000000000
O      -6.905000000000000      7.182000000000000     -2.106000000000000
C      -5.495000000000000      7.568000000000000     -1.793000000000000
C      -5.358000000000000      8.843999999999999     -0.906000000000000
O      -3.995000000000000      9.188000000000001     -0.881000000000000
C      -3.634000000000000     10.225000000000000      0.127000000000000
C      -2.402000000000000      9.747999999999999      1.087000000000000
O      -2.853000000000000      9.435000000000000      2.420000000000000
C      -1.904000000000000      9.320000000000000      3.526000000000000
C      -1.676000000000000      7.799000000000000      3.868000000000000
O      -2.785000000000000      7.218000000000000      4.536000000000000
C      -2.596000000000000      5.869000000000000      4.935000000000000
C      -3.913000000000000      5.364000000000000      5.520000000000000
O      -3.715000000000000      3.968000000000000      5.937000000000000
C      -3.802000000000000      2.900000000000000      5.048000000000000
C      -5.322000000000000      2.514000000000000      4.887000000000000
H      -7.080000000000000      0.406000000000000      4.173000000000000
H      -7.409000000000000      2.041000000000000      3.682000000000000
H      -7.237000000000000     -0.389000000000000      2.079000000000000
H      -5.829000000000000      0.422000000000000      1.570000000000000
H      -7.156000000000000      1.138000000000000     -0.799000000000000
H      -6.130000000000000      2.315000000000000      0.147000000000000
H      -8.923999999999999      3.152000000000000     -0.113000000000000
H      -7.498000000000000      4.025000000000000      0.241000000000000
H      -5.721000000000000      4.402000000000000     -1.721000000000000
H      -6.873000000000000      4.866000000000000     -3.087000000000000
H      -6.956000000000000      5.965000000000000     -0.355000000000000
H      -8.394000000000000      5.871000000000000     -1.614000000000000
H      -4.972000000000000      6.748000000000000     -1.285000000000000
H      -4.984000000000000      7.822000000000000     -2.729000000000000
H      -5.713000000000000      8.580000000000000      0.098000000000000
H      -6.050000000000000      9.622999999999999     -1.248000000000000
H      -4.462000000000000     10.496000000000000      0.794000000000000
H      -3.153000000000000     11.028000000000000     -0.444000000000000
H      -1.881000000000000      9.041000000000000      0.430000000000000
H      -1.686000000000000     10.573000000000000      1.190000000000000
H      -2.384000000000000      9.755000000000001      4.411000000000000
H      -0.933000000000000      9.792000000000000      3.334000000000000
H      -0.782000000000000      7.710000000000000      4.498000000000000
H      -1.507000000000000      7.270000000000000      2.922000000000000
H      -2.362000000000000      5.257000000000000      4.055000000000000
H      -1.940000000000000      5.787000000000000      5.810000000000000
H      -4.253000000000000      5.985000000000000      6.358000000000000
H      -4.791000000000000      5.287000000000000      4.865000000000000
H      -3.299000000000000      1.979000000000000      5.368000000000000
H      -3.358000000000000      3.212000000000000      4.095000000000000
H      -5.782000000000000      3.400000000000000      4.432000000000000
H      -5.892000000000000      2.267000000000000      5.791000000000000
56

O      -7.030000000000000      2.948000000000000      0.349000000000000
C      -6.358000000000000      3.726000000000000     -0.620000000000000
C      -5.564000000000000      2.827000000000000     -1.500000000000000
O      -5.108000000000000      3.780000000000000     -2.467000000000000
C      -4.319000000000000      3.214000000000000     -3.612000000000000
C      -2.841000000000000      2.782000000000000     -3.159000000000000
O      -2.102000000000000      3.965000000000000     -3.146000000000000
C      -0.792000000000000      4.011000000000000     -3.817000000000000
C       0.012000000000000      5.265000000000000     -3.373000000000000
O       0.748000000000000      5.071000000000000     -2.192000000000000
C       1.288000000000000      6.157000000000000     -1.430000000000000
C       1.572000000000000      5.666000000000000      0.104000000000000
O       0.637000000000000      6.259000000000000      1.100000000000000
C       0.566000000000000      5.588000000000000      2.316000000000000
C       0.020000000000000      6.457000000000000      3.453000000000000
O      -1.390000000000000      6.647000000000000      3.191000000000000
C      -2.267000000000000      6.167000000000000      4.324000000000000
C      -2.379000000000000      4.543000000000000      4.352000000000000
O      -3.672000000000000      4.106000000000000      4.783000000000000
C      -3.923000000000000      2.666000000000000      4.490000000000000
C      -5.376000000000000      2.358000000000000      4.751000000000000
O      -6.279000000000000      3.145000000000000      3.937000000000000
C      -6.834000000000000      2.488000000000000      2.710000000000000
C      -7.155000000000000      3.511000000000000      1.646000000000000
H      -7.069000000000000      4.296000000000000     -1.231000000000000
H      -5.650000000000000      4.420000000000000     -0.151000000000000
H      -6.235000000000000      2.071000000000000     -1.924000000000000
H      -4.759000000000000      2.283000000000000     -0.990000000000000
H      -4.339000000000000      3.975000000000000     -4.402000000000000
H      -4.786000000000000      2.329000000000000     -4.060000000000000
H      -2.834000000000000      2.349000000000000     -2.151000000000000
H      -2.436000000000000      2.000000000000000     -3.813000000000000
H      -0.234000000000000      3.099000000000000     -3.572000000000000
H      -0.874000000000000      4.022000000000000     -4.911000000000000
H      -0.725000000000000      6.073000000000000     -3.285000000000000
H       0.673000000000000      5.603000000000000     -4.181000000000000
H       2.182000000000000      6.599000000000000     -1.886000000000000
H       0.509000000000000      6.930000000000000     -1.445000000000000
H       2.607000000000000      5.887000000000000      0.390000000000000
H       1.557000000000000      4.570000000000000      0.143000000000000
H       1.604000000000000      5.321000000000000      2.552000000000000
H       0.047000000000000      4.625000000000000      2.241000000000000
H       0.202000000000000      6.021000000000000      4.443000000000000
H       0.540000000000000      7.415000000000000      3.335000000000000
H      -3.252000000000000      6.597000000000000      4.101000000000000
H      -1.940000000000000      6.536000000000000      5.304000000000000
H      -1.580000000000000      4.050000000000000      4.918000000000000
H      -2.105000000000000      4.098000000000000      3.387000000000000
H      -3.613000000000000      2.426000000000000      3.466000000000000
H      -3.337000000000000      2.059000000000000      5.192000000000000
H      -5.438000000000000      1.274000000000000      4.590000000000000
H      -5.559000000000000      2.685000000000000      5.782000000000000
H      -7.641000000000000      1.772000000000000      2.910000000000000
H      -6.004000000000000      1.885000000000000      2.321000000000000
H      -6.615000000000000      4.457000000000000      1.780000000000000
H      -8.215000000000000      3.745000000000000      1.802000000000000
56

O      -6.481000000000000      2.506000000000000     -2.134000000000000
C      -5.178000000000000      3.113000000000000     -2.259000000000000
C      -4.473000000000000      3.138000000000000     -3.707000000000000
O      -3.197000000000000      3.826000000000000     -3.567000000000000
C      -3.211000000000000      5.273000000000000     -3.697000000000000
C      -1.786000000000000      5.883000000000000     -3.633000000000000
O      -1.173000000000000      5.429000000000000     -2.414000000000000
C      -0.120000000000000      6.256000000000000     -1.843000000000000
C      -0.607000000000000      6.985000000000000     -0.651000000000000
O      -0.575000000000000      6.017000000000000      0.411000000000000
C      -0.993000000000000      6.359000000000000      1.746000000000000
C      -1.081000000000000      5.088000000000000      2.623000000000000
O      -1.488000000000000      5.544000000000000      4.008000000000000
C      -2.874000000000000      5.879000000000000      4.156000000000000
C      -3.614000000000000      4.586000000000000      4.464000000000000
O      -5.030000000000000      4.773000000000000      4.518000000000000
C      -5.688000000000000      3.868000000000000      5.482000000000000
C      -5.853000000000000      2.433000000000000      4.877000000000000
O      -7.009000000000000      2.356000000000000      4.027000000000000
C      -7.035000000000000      1.127000000000000      3.264000000000000
C      -8.077000000000000      1.146000000000000      2.178000000000000
O      -7.821000000000000      2.143000000000000      1.209000000000000
C      -7.116000000000000      1.688000000000000      0.035000000000000
C      -7.274000000000000      2.775000000000000     -1.025000000000000
H      -5.170000000000000      4.156000000000000     -1.918000000000000
H      -4.555000000000000      2.520000000000000     -1.579000000000000
H      -5.004000000000000      3.704000000000000     -4.482000000000000
H      -4.279000000000000      2.091000000000000     -3.969000000000000
H      -3.814000000000000      5.647000000000000     -2.861000000000000
H      -3.793000000000000      5.595000000000000     -4.569000000000000
H      -1.196000000000000      5.582000000000000     -4.507000000000000
H      -1.841000000000000      6.978000000000000     -3.580000000000000
H       0.745000000000000      5.610000000000000     -1.647000000000000
H       0.294000000000000      7.048000000000000     -2.479000000000000
H      -1.639000000000000      7.310000000000000     -0.831000000000000
H      -0.028000000000000      7.902000000000000     -0.483000000000000
H      -0.230000000000000      6.962000000000000      2.253000000000000
H      -1.939000000000000      6.913000000000000      1.729000000000000
H      -0.096000000000000      4.606000000000000      2.611000000000000
H      -1.923000000000000      4.480000000000000      2.269000000000000
H      -3.258000000000000      6.317000000000000      3.226000000000000
H      -2.973000000000000      6.526000000000000      5.036000000000000
H      -3.343000000000000      3.871000000000000      3.677000000000000
H      -3.253000000000000      4.229000000000000      5.437000000000000
H      -6.732000000000000      4.136000000000000      5.688000000000000
H      -5.116000000000000      3.802000000000000      6.416000000000000
H      -5.940000000000000      1.609000000000000      5.595000000000000
H      -4.988000000000000      2.221000000000000      4.237000000000000
H      -6.102000000000000      1.015000000000000      2.698000000000000
H      -7.166000000000000      0.310000000000000      3.984000000000000
H      -8.092000000000001      0.178000000000000      1.662000000000000
H      -9.026999999999999      1.420000000000000      2.654000000000000
H      -7.470000000000000      0.747000000000000     -0.403000000000000
H      -6.064000000000000      1.487000000000000      0.273000000000000
H      -7.147000000000000      3.808000000000000     -0.680000000000000
H      -8.324000000000000      2.760000000000000     -1.339000000000000
56

O      -5.824000000000000      1.801000000000000      1.216000000000000
C      -4.835000000000000      2.192000000000000      0.254000000000000
C      -4.554000000000000      3.676000000000000      0.246000000000000
O      -3.644000000000000      3.948000000000000     -0.867000000000000
C      -3.152000000000000      5.333000000000000     -0.815000000000000
C      -1.872000000000000      5.527000000000000     -1.676000000000000
O      -0.654000000000000      5.133000000000000     -0.988000000000000
C       0.120000000000000      6.088000000000000     -0.204000000000000
C       1.358000000000000      5.372000000000000      0.458000000000000
O       0.953000000000000      4.724000000000000      1.680000000000000
C       2.084000000000000      4.353000000000000      2.448000000000000
C       1.960000000000000      2.843000000000000      2.819000000000000
O       2.458000000000000      2.667000000000000      4.142000000000000
C       1.494000000000000      2.371000000000000      5.206000000000000
C       1.276000000000000      0.847000000000000      5.320000000000000
O      -0.004000000000000      0.559000000000000      5.885000000000000
C      -0.244000000000000     -0.682000000000000      6.509000000000000
C      -1.156000000000000     -1.569000000000000      5.623000000000000
O      -2.537000000000000     -1.144000000000000      5.435000000000000
C      -3.361000000000000     -1.822000000000000      4.508000000000000
C      -4.867000000000000     -1.432000000000000      4.720000000000000
O      -5.058000000000000     -0.027000000000000      4.332000000000000
C      -5.039000000000000      0.258000000000000      2.902000000000000
C      -5.370000000000000      1.737000000000000      2.598000000000000
H      -3.926000000000000      1.671000000000000      0.579000000000000
H      -5.107000000000000      1.951000000000000     -0.781000000000000
H      -4.129000000000000      4.020000000000000      1.197000000000000
H      -5.457000000000000      4.260000000000000      0.029000000000000
H      -2.978000000000000      5.663000000000000      0.216000000000000
H      -3.868000000000000      6.008000000000000     -1.300000000000000
H      -2.078000000000000      4.900000000000000     -2.552000000000000
H      -1.793000000000000      6.584000000000000     -1.958000000000000
H       0.432000000000000      6.965000000000000     -0.785000000000000
H      -0.531000000000000      6.423000000000000      0.614000000000000
H       2.089000000000000      6.128000000000000      0.770000000000000
H       1.763000000000000      4.680000000000000     -0.291000000000000
H       3.022000000000000      4.506000000000000      1.900000000000000
H       2.231000000000000      5.070000000000000      3.266000000000000
H       2.650000000000000      2.308000000000000      2.154000000000000
H       0.950000000000000      2.423000000000000      2.736000000000000
H       0.553000000000000      2.878000000000000      4.960000000000000
H       1.947000000000000      2.617000000000000      6.175000000000000
H       1.395000000000000      0.340000000000000      4.355000000000000
H       2.043000000000000      0.420000000000000      5.978000000000000
H      -0.678000000000000     -0.465000000000000      7.493000000000000
H       0.691000000000000     -1.235000000000000      6.654000000000000
H      -1.005000000000000     -2.592000000000000      5.990000000000000
H      -0.692000000000000     -1.568000000000000      4.629000000000000
H      -3.055000000000000     -1.469000000000000      3.515000000000000
H      -3.240000000000000     -2.907000000000000      4.614000000000000
H      -5.540000000000000     -2.098000000000000      4.166000000000000
H      -5.092000000000000     -1.505000000000000      5.791000000000000
H      -5.796000000000000     -0.388000000000000      2.439000000000000
H      -4.025000000000000      0.037000000000000      2.548000000000000
H      -4.475000000000000      2.363000000000000      2.692000000000000
H      -6.195000000000000      2.019000000000000      3.264000000000000
56

O      -4.286000000000000      0.877000000000000      1.422000000000000
C      -4.731000000000000      1.949000000000000      0.566000000000000
C      -4.149000000000000      1.808000000000000     -0.874000000000000
O      -4.115000000000000      3.069000000000000     -1.565000000000000
C      -3.684000000000000      3.144000000000000     -2.919000000000000
C      -2.912000000000000      4.489000000000000     -3.183000000000000
O      -1.461000000000000      4.298000000000000     -3.557000000000000
C      -0.673000000000000      5.484000000000000     -3.635000000000000
C       0.325000000000000      5.353000000000000     -2.472000000000000
O       1.499000000000000      4.552000000000000     -2.831000000000000
C       2.735000000000000      4.602000000000000     -2.015000000000000
C       2.657000000000000      3.542000000000000     -0.898000000000000
O       3.710000000000000      3.870000000000000      0.060000000000000
C       3.333000000000000      3.993000000000000      1.425000000000000
C       3.490000000000000      2.565000000000000      2.072000000000000
O       2.935000000000000      2.708000000000000      3.469000000000000
C       3.236000000000000      1.610000000000000      4.377000000000000
C       2.303000000000000      0.458000000000000      4.245000000000000
O       1.065000000000000      0.809000000000000      4.894000000000000
C       0.208000000000000     -0.284000000000000      5.110000000000000
C      -0.658000000000000     -0.615000000000000      3.902000000000000
O      -1.815000000000000      0.195000000000000      3.853000000000000
C      -2.817000000000000     -0.099000000000000      2.808000000000000
C      -3.293000000000000      1.236000000000000      2.317000000000000
H      -5.820000000000000      1.954000000000000      0.432000000000000
H      -4.489000000000000      2.927000000000000      1.000000000000000
H      -4.935000000000000      1.219000000000000     -1.363000000000000
H      -3.218000000000000      1.233000000000000     -0.955000000000000
H      -4.566000000000000      3.091000000000000     -3.569000000000000
H      -3.006000000000000      2.296000000000000     -3.078000000000000
H      -3.409000000000000      5.101000000000000     -3.946000000000000
H      -3.051000000000000      5.103000000000000     -2.284000000000000
H      -0.081000000000000      5.611000000000000     -4.549000000000000
H      -1.247000000000000      6.405000000000000     -3.477000000000000
H      -0.277000000000000      5.043000000000000     -1.609000000000000
H       0.695000000000000      6.369000000000000     -2.285000000000000
H       3.569000000000000      4.329000000000000     -2.673000000000000
H       2.848000000000000      5.571000000000000     -1.513000000000000
H       2.635000000000000      2.537000000000000     -1.336000000000000
H       1.655000000000000      3.525000000000000     -0.451000000000000
H       2.312000000000000      4.376000000000000      1.544000000000000
H       3.953000000000000      4.622000000000000      2.076000000000000
H       3.021000000000000      1.822000000000000      1.415000000000000
H       4.542000000000000      2.255000000000000      2.121000000000000
H       3.242000000000000      2.036000000000000      5.387000000000000
H       4.261000000000000      1.267000000000000      4.187000000000000
H       2.792000000000000     -0.392000000000000      4.736000000000000
H       2.217000000000000      0.273000000000000      3.167000000000000
H       0.909000000000000     -1.098000000000000      5.333000000000000
H      -0.364000000000000     -0.155000000000000      6.037000000000000
H       0.015000000000000     -0.675000000000000      3.038000000000000
H      -1.005000000000000     -1.652000000000000      3.993000000000000
H      -3.617000000000000     -0.685000000000000      3.278000000000000
H      -2.501000000000000     -0.780000000000000      2.008000000000000
H      -2.436000000000000      1.799000000000000      1.926000000000000
H      -3.808000000000000      1.854000000000000      3.063000000000000
56

O      -3.650000000000000     -0.420000000000000      5.294000000000000
C      -4.684000000000000     -0.651000000000000      4.306000000000000
C      -4.867000000000000      0.707000000000000      3.481000000000000
O      -5.035000000000000      0.424000000000000      2.052000000000000
C      -6.259000000000000      0.959000000000000      1.517000000000000
C      -6.222000000000000      1.318000000000000      0.027000000000000
O      -5.428000000000000      2.468000000000000     -0.219000000000000
C      -5.019000000000000      2.532000000000000     -1.610000000000000
C      -3.968000000000000      3.680000000000000     -1.764000000000000
O      -2.622000000000000      3.286000000000000     -1.667000000000000
C      -1.685000000000000      4.238000000000000     -1.252000000000000
C      -0.365000000000000      3.553000000000000     -0.927000000000000
O       0.574000000000000      4.605000000000000     -0.503000000000000
C       0.703000000000000      4.744000000000000      0.898000000000000
C       1.977000000000000      3.921000000000000      1.381000000000000
O       2.026000000000000      3.986000000000000      2.839000000000000
C       2.981000000000000      3.259000000000000      3.521000000000000
C       2.795000000000000      3.492000000000000      5.049000000000000
O       1.613000000000000      2.751000000000000      5.506000000000000
C       1.963000000000000      1.588000000000000      6.307000000000000
C       0.660000000000000      0.883000000000000      6.802000000000000
O      -0.081000000000000      0.397000000000000      5.685000000000000
C      -1.301000000000000     -0.335000000000000      6.045000000000000
C      -2.271000000000000     -0.503000000000000      4.857000000000000
H      -4.214000000000000     -1.408000000000000      3.666000000000000
H      -5.620000000000000     -1.121000000000000      4.634000000000000
H      -4.030000000000000      1.401000000000000      3.629000000000000
H      -5.788000000000000      1.152000000000000      3.879000000000000
H      -6.493000000000000      1.909000000000000      2.013000000000000
H      -7.113000000000000      0.353000000000000      1.844000000000000
H      -5.847000000000000      0.416000000000000     -0.474000000000000
H      -7.225000000000000      1.540000000000000     -0.356000000000000
H      -4.532000000000000      1.580000000000000     -1.854000000000000
H      -5.875000000000000      2.631000000000000     -2.289000000000000
H      -4.257000000000000      4.484000000000000     -1.075000000000000
H      -4.129000000000000      4.133000000000000     -2.750000000000000
H      -1.565000000000000      5.029000000000000     -2.003000000000000
H      -1.946000000000000      4.758000000000000     -0.322000000000000
H       0.045000000000000      2.953000000000000     -1.749000000000000
H      -0.482000000000000      2.740000000000000     -0.200000000000000
H      -0.175000000000000      4.389000000000000      1.451000000000000
H       1.037000000000000      5.771000000000000      1.091000000000000
H       1.913000000000000      2.871000000000000      1.072000000000000
H       2.891000000000000      4.313000000000000      0.918000000000000
H       4.035000000000000      3.539000000000000      3.401000000000000
H       2.984000000000000      2.185000000000000      3.294000000000000
H       2.707000000000000      4.544000000000000      5.347000000000000
H       3.718000000000000      3.040000000000000      5.432000000000000
H       2.483000000000000      0.791000000000000      5.761000000000000
H       2.547000000000000      1.846000000000000      7.199000000000000
H       0.788000000000000      0.174000000000000      7.629000000000000
H       0.060000000000000      1.683000000000000      7.254000000000000
H      -1.756000000000000      0.115000000000000      6.936000000000000
H      -0.941000000000000     -1.335000000000000      6.314000000000000
H      -1.995000000000000     -1.474000000000000      4.429000000000000
H      -2.111000000000000      0.277000000000000      4.102000000000000
56

O      -3.845000000000000     -4.017000000000000      2.138000000000000
C      -4.572000000000000     -3.730000000000000      0.899000000000000
C      -4.321000000000000     -2.280000000000000      0.557000000000000
O      -4.669000000000000     -2.188000000000000     -0.834000000000000
C      -3.555000000000000     -1.998000000000000     -1.719000000000000
C      -3.475000000000000     -0.449000000000000     -2.087000000000000
O      -2.665000000000000     -0.319000000000000     -3.256000000000000
C      -1.227000000000000     -0.552000000000000     -3.018000000000000
C      -0.355000000000000     -0.199000000000000     -4.245000000000000
O       0.898000000000000     -0.957000000000000     -4.381000000000000
C       2.053000000000000     -0.356000000000000     -3.751000000000000
C       3.348000000000000     -1.030000000000000     -4.202000000000000
O       3.404000000000000     -2.362000000000000     -3.625000000000000
C       3.938000000000000     -2.383000000000000     -2.207000000000000
C       4.296000000000000     -3.739000000000000     -1.644000000000000
O       3.054000000000000     -4.450000000000000     -1.439000000000000
C       2.994000000000000     -5.518000000000000     -0.419000000000000
C       2.201000000000000     -5.008000000000000      0.910000000000000
O       1.636000000000000     -6.090000000000000      1.720000000000000
C       0.846000000000000     -5.719000000000000      2.813000000000000
C      -0.650000000000000     -6.298000000000000      2.678000000000000
O      -1.528000000000000     -5.391000000000000      3.405000000000000
C      -2.901000000000000     -5.717000000000000      3.525000000000000
C      -3.599000000000000     -5.451000000000000      2.226000000000000
H      -4.111000000000000     -4.218000000000000      0.031000000000000
H      -5.651000000000000     -3.916000000000000      0.964000000000000
H      -3.327000000000000     -1.874000000000000      0.783000000000000
H      -4.997000000000000     -1.661000000000000      1.160000000000000
H      -3.723000000000000     -2.576000000000000     -2.636000000000000
H      -2.624000000000000     -2.358000000000000     -1.265000000000000
H      -4.515000000000000     -0.128000000000000     -2.224000000000000
H      -2.980000000000000     -0.020000000000000     -1.207000000000000
H      -0.832000000000000      0.100000000000000     -2.228000000000000
H      -0.979000000000000     -1.609000000000000     -2.867000000000000
H      -0.146000000000000      0.852000000000000     -4.009000000000000
H      -0.996000000000000     -0.264000000000000     -5.132000000000000
H       2.064000000000000      0.733000000000000     -3.879000000000000
H       2.107000000000000     -0.492000000000000     -2.664000000000000
H       4.180000000000000     -0.410000000000000     -3.847000000000000
H       3.282000000000000     -1.093000000000000     -5.296000000000000
H       3.105000000000000     -2.029000000000000     -1.588000000000000
H       4.767000000000000     -1.664000000000000     -2.223000000000000
H       4.909000000000000     -4.266000000000000     -2.385000000000000
H       4.850000000000000     -3.529000000000000     -0.721000000000000
H       3.986000000000000     -5.962000000000000     -0.266000000000000
H       2.478000000000000     -6.399000000000000     -0.820000000000000
H       1.403000000000000     -4.310000000000000      0.624000000000000
H       2.956000000000000     -4.478000000000000      1.503000000000000
H       1.255000000000000     -6.175000000000000      3.723000000000000
H       0.855000000000000     -4.642000000000000      3.019000000000000
H      -0.953000000000000     -6.334000000000000      1.624000000000000
H      -0.657000000000000     -7.287000000000000      3.153000000000000
H      -3.419000000000000     -5.151000000000000      4.309000000000000
H      -2.914000000000000     -6.787000000000000      3.768000000000000
H      -4.514000000000000     -6.038000000000000      2.079000000000000
H      -2.923000000000000     -5.768000000000000      1.422000000000000
56

O      -0.887000000000000      6.098000000000000     -2.986000000000000
C      -0.550000000000000      7.133000000000000     -2.032000000000000
C       0.756000000000000      6.987000000000000     -1.236000000000000
O       1.849000000000000      6.847000000000000     -2.187000000000000
C       3.122000000000000      7.286000000000000     -1.671000000000000
C       4.089000000000000      6.031000000000000     -1.672000000000000
O       4.228000000000000      5.457000000000000     -3.011000000000000
C       5.385000000000000      4.613000000000000     -2.990000000000000
C       5.052000000000000      3.183000000000000     -2.512000000000000
O       5.873000000000000      2.165000000000000     -3.059000000000000
C       5.155000000000000      1.185000000000000     -3.739000000000000
C       4.788000000000000     -0.040000000000000     -2.919000000000000
O       3.836000000000000     -0.724000000000000     -3.792000000000000
C       3.746000000000000     -2.126000000000000     -3.598000000000000
C       2.451000000000000     -2.584000000000000     -2.798000000000000
O       1.281000000000000     -2.289000000000000     -3.629000000000000
C       0.087000000000000     -2.130000000000000     -2.885000000000000
C      -0.784000000000000     -0.936000000000000     -3.422000000000000
O      -1.672000000000000     -0.428000000000000     -2.496000000000000
C      -1.801000000000000      1.016000000000000     -2.285000000000000
C      -2.776000000000000      1.751000000000000     -3.289000000000000
O      -2.777000000000000      3.155000000000000     -2.884000000000000
C      -1.904000000000000      4.061000000000000     -3.589000000000000
C      -2.028000000000000      5.318000000000000     -2.780000000000000
H      -0.631000000000000      8.103000000000000     -2.539000000000000
H      -1.388000000000000      7.122000000000000     -1.324000000000000
H       0.662000000000000      6.057000000000000     -0.661000000000000
H       0.834000000000000      7.818000000000000     -0.524000000000000
H       3.188000000000000      7.675000000000000     -0.648000000000000
H       3.583000000000000      8.012000000000000     -2.353000000000000
H       5.101000000000000      6.310000000000000     -1.352000000000000
H       3.763000000000000      5.373000000000000     -0.857000000000000
H       5.664000000000000      4.353000000000000     -4.019000000000000
H       6.220000000000000      4.989000000000000     -2.386000000000000
H       4.071000000000000      3.005000000000000     -2.969000000000000
H       4.971000000000000      3.162000000000000     -1.418000000000000
H       4.250000000000000      1.562000000000000     -4.232000000000000
H       5.787000000000000      0.911000000000000     -4.593000000000000
H       4.303000000000000      0.133000000000000     -1.950000000000000
H       5.629000000000000     -0.720000000000000     -2.739000000000000
H       4.605000000000000     -2.557000000000000     -3.070000000000000
H       3.765000000000000     -2.543000000000000     -4.612000000000000
H       2.523000000000000     -3.673000000000000     -2.688000000000000
H       2.327000000000000     -2.014000000000000     -1.868000000000000
H       0.296000000000000     -1.848000000000000     -1.846000000000000
H      -0.539000000000000     -3.017000000000000     -3.047000000000000
H      -1.397000000000000     -1.223000000000000     -4.286000000000000
H      -0.194000000000000     -0.054000000000000     -3.697000000000000
H      -2.088000000000000      1.118000000000000     -1.232000000000000
H      -0.833000000000000      1.532000000000000     -2.275000000000000
H      -2.434000000000000      1.587000000000000     -4.318000000000000
H      -3.723000000000000      1.199000000000000     -3.316000000000000
H      -2.177000000000000      4.317000000000000     -4.621000000000000
H      -0.857000000000000      3.736000000000000     -3.552000000000000
H      -2.099000000000000      4.932000000000000     -1.756000000000000
H      -2.944000000000000      5.814000000000000     -3.124000000000000
56

O       2.872000000000000      3.079000000000000      0.648000000000000
C       3.335000000000000      3.356000000000000      1.941000000000000
C       2.937000000000000      2.286000000000000      3.017000000000000
O       3.314000000000000      1.009000000000000      2.516000000000000
C       2.522000000000000     -0.123000000000000      3.060000000000000
C       2.988000000000000     -1.392000000000000      2.316000000000000
O       2.342000000000000     -2.513000000000000      2.699000000000000
C       1.177000000000000     -2.923000000000000      1.896000000000000
C       1.442000000000000     -4.025000000000000      0.763000000000000
O       0.195000000000000     -4.693000000000000      0.463000000000000
C      -0.579000000000000     -3.757000000000000     -0.266000000000000
C      -1.728000000000000     -4.530000000000000     -1.017000000000000
O      -2.921000000000000     -3.790000000000000     -0.958000000000000
C      -3.668000000000000     -3.672000000000000     -2.149000000000000
C      -4.754000000000000     -2.513000000000000     -2.091000000000000
O      -4.075000000000000     -1.216000000000000     -1.931000000000000
C      -3.832000000000000     -0.439000000000000     -3.152000000000000
C      -4.113000000000000      1.063000000000000     -3.136000000000000
O      -2.859000000000000      1.909000000000000     -3.094000000000000
C      -2.228000000000000      2.305000000000000     -1.864000000000000
C      -0.858000000000000      2.731000000000000     -2.322000000000000
O      -0.164000000000000      3.283000000000000     -1.229000000000000
C       1.259000000000000      3.372000000000000     -1.246000000000000
C       1.658000000000000      3.843000000000000      0.182000000000000
H       4.432000000000000      3.356000000000000      1.949000000000000
H       2.965000000000000      4.354000000000000      2.209000000000000
H       1.866000000000000      2.366000000000000      3.237000000000000
H       3.426000000000000      2.471000000000000      3.982000000000000
H       1.433000000000000     -0.076000000000000      2.935000000000000
H       2.650000000000000     -0.196000000000000      4.147000000000000
H       2.865000000000000     -1.242000000000000      1.236000000000000
H       4.062000000000000     -1.515000000000000      2.501000000000000
H       0.548000000000000     -3.445000000000000      2.627000000000000
H       0.671000000000000     -2.035000000000000      1.497000000000000
H       2.059000000000000     -4.864000000000000      1.110000000000000
H       1.898000000000000     -3.672000000000000     -0.170000000000000
H      -1.139000000000000     -3.124000000000000      0.433000000000000
H       0.023000000000000     -3.218000000000000     -1.008000000000000
H      -1.829000000000000     -5.536000000000000     -0.590000000000000
H      -1.411000000000000     -4.565000000000000     -2.066000000000000
H      -4.254000000000000     -4.592000000000000     -2.263000000000000
H      -2.981000000000000     -3.530000000000000     -2.992000000000000
H      -5.452000000000000     -2.501000000000000     -2.937000000000000
H      -5.409000000000000     -2.667000000000000     -1.224000000000000
H      -4.541000000000000     -0.865000000000000     -3.872000000000000
H      -2.831000000000000     -0.649000000000000     -3.550000000000000
H      -4.738000000000000      1.333000000000000     -2.276000000000000
H      -4.745000000000000      1.446000000000000     -3.947000000000000
H      -2.762000000000000      3.160000000000000     -1.430000000000000
H      -2.190000000000000      1.472000000000000     -1.151000000000000
H      -0.336000000000000      1.882000000000000     -2.780000000000000
H      -0.935000000000000      3.463000000000000     -3.136000000000000
H       1.568000000000000      4.145000000000000     -1.961000000000000
H       1.718000000000000      2.458000000000000     -1.641000000000000
H       0.821000000000000      3.581000000000000      0.840000000000000
H       1.835000000000000      4.919000000000000      0.067000000000000
56

O      -1.027000000000000      4.239000000000000      1.364000000000000
C       0.271000000000000      4.279000000000000      1.799000000000000
C       0.373000000000000      3.749000000000000      3.227000000000000
O      -0.009000000000000      2.317000000000000      3.378000000000000
C       0.921000000000000      1.450000000000000      4.181000000000000
C       0.224000000000000      0.175000000000000      4.638000000000000
O       1.339000000000000     -0.702000000000000      5.012000000000000
C       1.828000000000000     -1.715000000000000      4.108000000000000
C       0.711000000000000     -2.829000000000000      4.075000000000000
O       0.935000000000000     -3.711000000000000      2.936000000000000
C      -0.015000000000000     -4.697000000000000      2.731000000000000
C       0.485000000000000     -5.467000000000000      1.530000000000000
O       0.156000000000000     -4.889000000000000      0.248000000000000
C      -1.179000000000000     -5.095000000000000     -0.237000000000000
C      -1.206000000000000     -4.806000000000000     -1.796000000000000
O      -0.555000000000000     -3.533000000000000     -2.042000000000000
C      -1.432000000000000     -2.367000000000000     -2.056000000000000
C      -0.609000000000000     -1.310000000000000     -2.776000000000000
O      -1.398000000000000     -0.083000000000000     -3.027000000000000
C      -1.497000000000000      0.699000000000000     -1.847000000000000
C      -2.457000000000000      1.879000000000000     -1.979000000000000
O      -2.319000000000000      2.752000000000000     -0.809000000000000
C      -1.197000000000000      3.684000000000000     -0.973000000000000
C      -1.256000000000000      4.815000000000000      0.092000000000000
H       0.883000000000000      3.720000000000000      1.080000000000000
H       0.637000000000000      5.313000000000000      1.822000000000000
H      -0.280000000000000      4.395000000000000      3.826000000000000
H       1.357000000000000      3.988000000000000      3.647000000000000
H       1.309000000000000      2.005000000000000      5.044000000000000
H       1.771000000000000      1.158000000000000      3.551000000000000
H      -0.580000000000000      0.380000000000000      5.356000000000000
H      -0.345000000000000     -0.167000000000000      3.764000000000000
H       2.054000000000000     -1.332000000000000      3.106000000000000
H       2.707000000000000     -2.202000000000000      4.547000000000000
H      -0.286000000000000     -2.371000000000000      4.091000000000000
H       0.766000000000000     -3.480000000000000      4.956000000000000
H      -0.081000000000000     -5.327000000000000      3.627000000000000
H      -1.007000000000000     -4.275000000000000      2.528000000000000
H       0.119000000000000     -6.501000000000000      1.504000000000000
H       1.576000000000000     -5.541000000000000      1.623000000000000
H      -1.828000000000000     -4.319000000000000      0.186000000000000
H      -1.485000000000000     -6.119000000000000      0.012000000000000
H      -0.827000000000000     -5.628000000000000     -2.415000000000000
H      -2.250000000000000     -4.733000000000000     -2.126000000000000
H      -1.665000000000000     -2.066000000000000     -1.027000000000000
H      -2.381000000000000     -2.527000000000000     -2.583000000000000
H      -0.269000000000000     -1.809000000000000     -3.692000000000000
H       0.345000000000000     -1.138000000000000     -2.262000000000000
H      -1.974000000000000      0.089000000000000     -1.070000000000000
H      -0.469000000000000      0.950000000000000     -1.558000000000000
H      -2.396000000000000      2.411000000000000     -2.937000000000000
H      -3.486000000000000      1.503000000000000     -1.924000000000000
H      -1.200000000000000      4.125000000000000     -1.977000000000000
H      -0.287000000000000      3.120000000000000     -0.730000000000000
H      -2.298000000000000      5.153000000000000      0.134000000000000
H      -0.626000000000000      5.678000000000000     -0.158000000000000
56

O      -1.814000000000000      5.325000000000000      2.564000000000000
C      -0.438000000000000      5.042000000000000      2.844000000000000
C      -0.406000000000000      4.206000000000000      4.191000000000000
O      -0.490000000000000      2.819000000000000      3.828000000000000
C      -1.154000000000000      1.946000000000000      4.760000000000000
C      -1.265000000000000      0.533000000000000      4.130000000000000
O      -2.032000000000000     -0.209000000000000      5.099000000000000
C      -3.504000000000000     -0.250000000000000      4.969000000000000
C      -3.994000000000000     -1.587000000000000      4.367000000000000
O      -5.360000000000000     -1.369000000000000      3.866000000000000
C      -6.161000000000000     -2.535000000000000      3.886000000000000
C      -5.853000000000000     -3.527000000000000      2.763000000000000
O      -5.783000000000000     -2.803000000000000      1.461000000000000
C      -6.893000000000000     -2.169000000000000      0.911000000000000
C      -6.626000000000000     -1.632000000000000     -0.470000000000000
O      -5.826000000000000     -0.424000000000000     -0.341000000000000
C      -5.664000000000000      0.382000000000000     -1.504000000000000
C      -6.179000000000000      1.741000000000000     -1.159000000000000
O      -5.572000000000000      2.684000000000000     -2.084000000000000
C      -4.270000000000000      3.161000000000000     -1.565000000000000
C      -4.443000000000000      4.369000000000000     -0.602000000000000
O      -3.198000000000000      4.768000000000000      0.007000000000000
C      -3.284000000000000      6.048000000000000      0.773000000000000
C      -1.955000000000000      6.373000000000000      1.568000000000000
H       0.074000000000000      4.531000000000000      2.019000000000000
H       0.017000000000000      6.029000000000000      2.996000000000000
H      -1.303000000000000      4.401000000000000      4.791000000000000
H       0.409000000000000      4.467000000000000      4.878000000000000
H      -2.179000000000000      2.323000000000000      4.861000000000000
H      -0.632000000000000      1.964000000000000      5.724000000000000
H      -1.652000000000000      0.517000000000000      3.104000000000000
H      -0.275000000000000      0.062000000000000      4.143000000000000
H      -3.909000000000000     -0.147000000000000      5.984000000000000
H      -3.862000000000000      0.633000000000000      4.425000000000000
H      -3.993000000000000     -2.337000000000000      5.167000000000000
H      -3.377000000000000     -1.890000000000000      3.513000000000000
H      -6.149000000000000     -3.043000000000000      4.858000000000000
H      -7.200000000000000     -2.189000000000000      3.823000000000000
H      -6.581000000000000     -4.347000000000000      2.793000000000000
H      -4.879000000000000     -4.023000000000000      2.854000000000000
H      -7.179000000000000     -1.416000000000000      1.655000000000000
H      -7.784000000000000     -2.808000000000000      0.911000000000000
H      -6.214000000000000     -2.456000000000000     -1.066000000000000
H      -7.586000000000000     -1.401000000000000     -0.950000000000000
H      -6.278000000000000     -0.040000000000000     -2.309000000000000
H      -4.615000000000000      0.417000000000000     -1.822000000000000
H      -5.856000000000000      1.961000000000000     -0.134000000000000
H      -7.274000000000000      1.792000000000000     -1.183000000000000
H      -3.693000000000000      2.302000000000000     -1.202000000000000
H      -3.646000000000000      3.497000000000000     -2.402000000000000
H      -4.961000000000000      5.206000000000000     -1.087000000000000
H      -5.173000000000000      4.061000000000000      0.156000000000000
H      -4.130000000000000      6.071000000000000      1.471000000000000
H      -3.511000000000000      6.911000000000000      0.134000000000000
H      -2.027000000000000      7.393000000000000      1.963000000000000
H      -1.091000000000000      6.320000000000000      0.893000000000000
56

O      -0.650000000000000     -1.470000000000000      5.739000000000000
C      -1.536000000000000     -2.166000000000000      6.697000000000000
C      -2.922000000000000     -1.455000000000000      6.607000000000000
O      -3.720000000000000     -2.082000000000000      5.528000000000000
C      -4.876000000000000     -1.398000000000000      5.060000000000000
C      -4.959000000000000     -1.530000000000000      3.580000000000000
O      -6.230000000000000     -0.832000000000000      3.263000000000000
C      -6.302000000000000     -0.428000000000000      1.928000000000000
C      -7.111000000000000      0.877000000000000      1.784000000000000
O      -6.389000000000000      1.759000000000000      0.930000000000000
C      -6.799000000000000      3.119000000000000      1.029000000000000
C      -5.884000000000000      3.943000000000000     -0.015000000000000
O      -4.491000000000000      3.848000000000000      0.289000000000000
C      -3.643000000000000      4.642000000000000     -0.594000000000000
C      -2.155000000000000      4.363000000000000     -0.182000000000000
O      -1.993000000000000      4.440000000000000      1.303000000000000
C      -0.604000000000000      4.448000000000000      1.740000000000000
C      -0.030000000000000      3.045000000000000      1.553000000000000
O       1.367000000000000      2.976000000000000      1.776000000000000
C       1.744000000000000      2.659000000000000      3.161000000000000
C       1.818000000000000      1.108000000000000      3.285000000000000
O       1.529000000000000      0.811000000000000      4.709000000000000
C       1.559000000000000     -0.572000000000000      5.067000000000000
C       0.553000000000000     -0.877000000000000      6.256000000000000
H      -1.553000000000000     -3.246000000000000      6.502000000000000
H      -1.196000000000000     -1.913000000000000      7.709000000000000
H      -2.795000000000000     -0.372000000000000      6.491000000000000
H      -3.349000000000000     -1.602000000000000      7.607000000000000
H      -4.812000000000000     -0.318000000000000      5.242000000000000
H      -5.786000000000000     -1.763000000000000      5.552000000000000
H      -4.101000000000000     -1.037000000000000      3.106000000000000
H      -5.062000000000000     -2.604000000000000      3.381000000000000
H      -5.304000000000000     -0.325000000000000      1.483000000000000
H      -6.827000000000000     -1.229000000000000      1.392000000000000
H      -7.299000000000000      1.393000000000000      2.734000000000000
H      -8.054000000000000      0.587000000000000      1.304000000000000
H      -7.843000000000000      3.345000000000000      0.777000000000000
H      -6.706000000000000      3.512000000000000      2.049000000000000
H      -6.249000000000000      4.976000000000000      0.040000000000000
H      -6.103000000000000      3.634000000000000     -1.045000000000000
H      -3.861000000000000      5.689000000000000     -0.350000000000000
H      -3.965000000000000      4.578000000000000     -1.641000000000000
H      -1.920000000000000      3.325000000000000     -0.450000000000000
H      -1.468000000000000      4.994000000000000     -0.759000000000000
H      -0.583000000000000      4.743000000000000      2.797000000000000
H      -0.036000000000000      5.102000000000000      1.067000000000000
H      -0.275000000000000      2.639000000000000      0.564000000000000
H      -0.486000000000000      2.439000000000000      2.346000000000000
H       2.701000000000000      3.145000000000000      3.389000000000000
H       0.990000000000000      3.140000000000000      3.796000000000000
H       1.029000000000000      0.596000000000000      2.719000000000000
H       2.841000000000000      0.825000000000000      3.008000000000000
H       2.606000000000000     -0.738000000000000      5.348000000000000
H       1.273000000000000     -1.204000000000000      4.217000000000000
H       0.352000000000000      0.048000000000000      6.811000000000000
H       1.097000000000000     -1.549000000000000      6.931000000000000
56

O       3.891000000000000     -2.904000000000000      3.961000000000000
C       3.209000000000000     -4.125000000000000      3.682000000000000
C       2.439000000000000     -4.722000000000000      4.875000000000000
O       1.296000000000000     -3.874000000000000      5.105000000000000
C       0.191000000000000     -4.016000000000000      4.199000000000000
C      -0.944000000000000     -3.416000000000000      5.027000000000000
O      -2.193000000000000     -3.823000000000000      4.468000000000000
C      -2.672000000000000     -3.105000000000000      3.286000000000000
C      -3.303000000000000     -1.745000000000000      3.800000000000000
O      -3.770000000000000     -0.940000000000000      2.660000000000000
C      -4.477000000000000      0.275000000000000      2.890000000000000
C      -4.248000000000000      1.284000000000000      1.790000000000000
O      -3.127000000000000      2.203000000000000      2.077000000000000
C      -2.846000000000000      3.298000000000000      1.173000000000000
C      -1.581000000000000      3.989000000000000      1.488000000000000
O      -0.423000000000000      3.111000000000000      1.119000000000000
C       0.652000000000000      3.222000000000000      2.047000000000000
C       1.796000000000000      2.558000000000000      1.415000000000000
O       3.004000000000000      2.900000000000000      2.166000000000000
C       3.311000000000000      1.925000000000000      3.202000000000000
C       4.264000000000000      0.746000000000000      2.747000000000000
O       4.756000000000000     -0.037000000000000      3.924000000000000
C       5.649000000000000     -1.156000000000000      3.569000000000000
C       4.862000000000000     -2.431000000000000      2.972000000000000
H       2.602000000000000     -4.144000000000000      2.768000000000000
H       4.031000000000000     -4.826000000000000      3.491000000000000
H       3.139000000000000     -4.780000000000000      5.718000000000000
H       1.982000000000000     -5.673000000000000      4.577000000000000
H       0.185000000000000     -5.094000000000000      3.998000000000000
H       0.373000000000000     -3.474000000000000      3.263000000000000
H      -0.796000000000000     -3.682000000000000      6.081000000000000
H      -0.921000000000000     -2.319000000000000      5.019000000000000
H      -1.863000000000000     -2.907000000000000      2.572000000000000
H      -3.403000000000000     -3.775000000000000      2.817000000000000
H      -2.495000000000000     -1.326000000000000      4.413000000000000
H      -4.138000000000000     -2.063000000000000      4.436000000000000
H      -5.556000000000000      0.130000000000000      3.020000000000000
H      -4.156000000000000      0.656000000000000      3.867000000000000
H      -5.176000000000000      1.771000000000000      1.466000000000000
H      -3.952000000000000      0.637000000000000      0.955000000000000
H      -3.663000000000000      4.027000000000000      1.116000000000000
H      -2.710000000000000      2.944000000000000      0.143000000000000
H      -1.434000000000000      4.955000000000000      0.987000000000000
H      -1.590000000000000      4.288000000000000      2.543000000000000
H       0.314000000000000      2.932000000000000      3.049000000000000
H       0.922000000000000      4.275000000000000      2.194000000000000
H       1.863000000000000      2.959000000000000      0.396000000000000
H       1.676000000000000      1.468000000000000      1.391000000000000
H       3.871000000000000      2.371000000000000      4.033000000000000
H       2.456000000000000      1.418000000000000      3.668000000000000
H       3.653000000000000      0.129000000000000      2.076000000000000
H       5.083000000000000      1.173000000000000      2.156000000000000
H       6.306000000000000     -1.497000000000000      4.378000000000000
H       6.346000000000000     -0.905000000000000      2.760000000000000
H       5.568000000000000     -3.206000000000000      2.650000000000000
H       4.365000000000000     -2.147000000000000      2.037000000000000
56

O      -1.017000000000000     -3.070000000000000      2.016000000000000
C      -2.209000000000000     -2.536000000000000      2.676000000000000
C      -2.938000000000000     -1.630000000000000      1.639000000000000
O      -1.979000000000000     -0.678000000000000      1.096000000000000
C      -2.433000000000000      0.018000000000000     -0.054000000000000
C      -2.570000000000000     -1.009000000000000     -1.273000000000000
O      -2.556000000000000     -0.150000000000000     -2.397000000000000
C      -1.251000000000000      0.321000000000000     -2.906000000000000
C      -0.782000000000000     -0.438000000000000     -4.172000000000000
O       0.536000000000000      0.073000000000000     -4.624000000000000
C       1.080000000000000     -0.566000000000000     -5.774000000000000
C       2.341000000000000      0.225000000000000     -6.351000000000000
O       3.508000000000000      0.110000000000000     -5.399000000000000
C       4.258000000000000     -1.056000000000000     -5.691000000000000
C       5.618000000000000     -1.058000000000000     -5.020000000000000
O       5.479000000000000     -1.252000000000000     -3.602000000000000
C       5.670000000000000     -2.593000000000000     -3.141000000000000
C       5.475000000000000     -2.680000000000000     -1.529000000000000
O       4.514000000000000     -3.688000000000000     -1.067000000000000
C       4.175000000000000     -3.628000000000000      0.346000000000000
C       2.921000000000000     -4.558000000000000      0.721000000000000
O       2.143000000000000     -3.938000000000000      1.758000000000000
C       0.863000000000000     -4.663000000000000      2.036000000000000
C      -0.027000000000000     -3.743000000000000      2.870000000000000
H      -2.841000000000000     -3.351000000000000      3.050000000000000
H      -1.881000000000000     -1.960000000000000      3.550000000000000
H      -3.767000000000000     -1.127000000000000      2.151000000000000
H      -3.503000000000000     -2.135000000000000      0.846000000000000
H      -1.715000000000000      0.794000000000000     -0.349000000000000
H      -3.400000000000000      0.494000000000000      0.151000000000000
H      -1.782000000000000     -1.766000000000000     -1.376000000000000
H      -3.554000000000000     -1.493000000000000     -1.251000000000000
H      -1.131000000000000      1.376000000000000     -3.180000000000000
H      -0.441000000000000      0.312000000000000     -2.166000000000000
H      -1.562000000000000     -0.370000000000000     -4.940000000000000
H      -0.616000000000000     -1.429000000000000     -3.730000000000000
H       1.339000000000000     -1.617000000000000     -5.595000000000000
H       0.341000000000000     -0.511000000000000     -6.583000000000000
H       1.978000000000000      1.253000000000000     -6.471000000000000
H       2.708000000000000     -0.144000000000000     -7.316000000000000
H       4.335000000000000     -1.135000000000000     -6.782000000000000
H       3.663000000000000     -1.941000000000000     -5.435000000000000
H       6.196000000000000     -1.888000000000000     -5.445000000000000
H       6.239000000000000     -0.170000000000000     -5.188000000000000
H       6.631000000000000     -2.991000000000000     -3.488000000000000
H       4.842000000000000     -3.225000000000000     -3.484000000000000
H       5.104000000000000     -1.735000000000000     -1.113000000000000
H       6.441000000000000     -2.847000000000000     -1.038000000000000
H       5.059000000000000     -3.851000000000000      0.957000000000000
H       3.942000000000000     -2.580000000000000      0.569000000000000
H       2.279000000000000     -4.809000000000000     -0.132000000000000
H       3.409000000000000     -5.506000000000000      0.978000000000000
H       1.061000000000000     -5.580000000000000      2.605000000000000
H       0.367000000000000     -4.965000000000000      1.106000000000000
H       0.520000000000000     -3.003000000000000      3.466000000000000
H      -0.479000000000000     -4.490000000000000      3.534000000000000
56

O      -4.203000000000000     -2.662000000000000      2.395000000000000
C      -5.342000000000000     -2.264000000000000      1.570000000000000
C      -5.896000000000000     -0.859000000000000      1.951000000000000
O      -6.010000000000000     -0.037000000000000      0.784000000000000
C      -5.522000000000000      1.284000000000000      0.940000000000000
C      -5.542000000000000      2.043000000000000     -0.328000000000000
O      -4.507000000000000      1.769000000000000     -1.288000000000000
C      -3.419000000000000      2.694000000000000     -1.156000000000000
C      -2.525000000000000      2.442000000000000     -2.418000000000000
O      -1.228000000000000      2.117000000000000     -2.033000000000000
C      -0.811000000000000      0.881000000000000     -2.709000000000000
C       0.539000000000000      0.503000000000000     -2.044000000000000
O       1.168000000000000     -0.539000000000000     -2.802000000000000
C       2.007000000000000     -1.386000000000000     -2.018000000000000
C       1.843000000000000     -2.778000000000000     -2.623000000000000
O       1.413000000000000     -3.754000000000000     -1.681000000000000
C       2.409000000000000     -4.426000000000000     -0.899000000000000
C       1.645000000000000     -5.298000000000000      0.122000000000000
O       1.295000000000000     -4.675000000000000      1.342000000000000
C       0.503000000000000     -5.458000000000000      2.237000000000000
C      -1.004000000000000     -5.448000000000000      1.720000000000000
O      -1.943000000000000     -5.522000000000000      2.820000000000000
C      -2.530000000000000     -4.205000000000000      3.122000000000000
C      -3.610000000000000     -3.928000000000000      2.047000000000000
H      -5.000000000000000     -2.309000000000000      0.528000000000000
H      -6.125000000000000     -3.030000000000000      1.632000000000000
H      -5.202000000000000     -0.436000000000000      2.687000000000000
H      -6.893000000000000     -0.934000000000000      2.402000000000000
H      -4.584000000000000      1.380000000000000      1.500000000000000
H      -6.232000000000000      1.770000000000000      1.621000000000000
H      -6.538000000000000      1.831000000000000     -0.736000000000000
H      -5.619000000000000      3.093000000000000     -0.021000000000000
H      -3.792000000000000      3.723000000000000     -1.085000000000000
H      -2.915000000000000      2.450000000000000     -0.213000000000000
H      -2.536000000000000      3.300000000000000     -3.101000000000000
H      -2.965000000000000      1.666000000000000     -3.057000000000000
H      -1.494000000000000      0.038000000000000     -2.552000000000000
H      -0.712000000000000      0.952000000000000     -3.799000000000000
H       0.385000000000000      0.211000000000000     -0.998000000000000
H       1.154000000000000      1.409000000000000     -1.987000000000000
H       1.690000000000000     -1.493000000000000     -0.973000000000000
H       3.079000000000000     -1.157000000000000     -2.052000000000000
H       1.092000000000000     -2.704000000000000     -3.419000000000000
H       2.736000000000000     -3.182000000000000     -3.117000000000000
H       3.022000000000000     -3.698000000000000     -0.352000000000000
H       2.991000000000000     -5.114000000000000     -1.525000000000000
H       2.322000000000000     -6.114000000000000      0.403000000000000
H       0.829000000000000     -5.727000000000000     -0.473000000000000
H       0.923000000000000     -6.452000000000000      2.435000000000000
H       0.416000000000000     -4.856000000000000      3.150000000000000
H      -1.232000000000000     -4.560000000000000      1.118000000000000
H      -0.978000000000000     -6.328000000000000      1.065000000000000
H      -1.767000000000000     -3.420000000000000      3.053000000000000
H      -2.981000000000000     -4.170000000000000      4.122000000000000
H      -4.413000000000000     -4.665000000000000      2.169000000000000
H      -3.113000000000000     -4.085000000000000      1.082000000000000
56

O      -2.747000000000000      1.205000000000000      0.131000000000000
C      -2.430000000000000      1.166000000000000     -1.270000000000000
C      -1.989000000000000      2.511000000000000     -1.756000000000000
O      -0.752000000000000      2.933000000000000     -1.067000000000000
C      -0.151000000000000      4.085000000000000     -1.584000000000000
C       1.287000000000000      3.757000000000000     -1.938000000000000
O       2.109000000000000      3.551000000000000     -0.816000000000000
C       3.514000000000000      3.468000000000000     -1.138000000000000
C       4.089000000000000      2.343000000000000     -0.271000000000000
O       5.052000000000000      1.506000000000000     -0.912000000000000
C       4.532000000000000      0.161000000000000     -1.292000000000000
C       4.426000000000000     -0.857000000000000     -0.082000000000000
O       4.516000000000000     -2.166000000000000     -0.643000000000000
C       3.251000000000000     -2.912000000000000     -0.930000000000000
C       2.751000000000000     -3.941000000000000      0.159000000000000
O       1.350000000000000     -4.274000000000000     -0.140000000000000
C       0.705000000000000     -5.282000000000000      0.725000000000000
C      -0.899000000000000     -5.064000000000000      0.717000000000000
O      -1.129000000000000     -3.938000000000000      1.599000000000000
C      -2.484000000000000     -3.695000000000000      1.939000000000000
C      -2.639000000000000     -2.319000000000000      2.703000000000000
O      -2.473000000000000     -1.308000000000000      1.748000000000000
C      -3.667000000000000     -1.057000000000000      0.914000000000000
C      -3.948000000000000      0.476000000000000      0.639000000000000
H      -1.671000000000000      0.391000000000000     -1.435000000000000
H      -3.327000000000000      0.849000000000000     -1.817000000000000
H      -2.768000000000000      3.251000000000000     -1.534000000000000
H      -1.849000000000000      2.427000000000000     -2.841000000000000
H      -0.286000000000000      4.949000000000000     -0.922000000000000
H      -0.675000000000000      4.277000000000000     -2.528000000000000
H       1.322000000000000      2.959000000000000     -2.690000000000000
H       1.661000000000000      4.692000000000000     -2.373000000000000
H       3.615000000000000      3.254000000000000     -2.209000000000000
H       4.108000000000000      4.347000000000000     -0.857000000000000
H       3.338000000000000      1.694000000000000      0.197000000000000
H       4.654000000000000      2.809000000000000      0.546000000000000
H       3.568000000000000      0.129000000000000     -1.815000000000000
H       5.291000000000000     -0.250000000000000     -1.970000000000000
H       3.483000000000000     -0.645000000000000      0.438000000000000
H       5.326000000000000     -0.638000000000000      0.507000000000000
H       3.445000000000000     -3.522000000000000     -1.821000000000000
H       2.388000000000000     -2.319000000000000     -1.255000000000000
H       3.374000000000000     -4.836000000000000      0.276000000000000
H       2.812000000000000     -3.286000000000000      1.037000000000000
H       1.017000000000000     -5.128000000000000      1.766000000000000
H       0.942000000000000     -6.291000000000000      0.368000000000000
H      -1.291000000000000     -5.996000000000000      1.143000000000000
H      -1.271000000000000     -4.805000000000000     -0.282000000000000
H      -3.109000000000000     -3.555000000000000      1.048000000000000
H      -2.856000000000000     -4.445000000000000      2.647000000000000
H      -3.651000000000000     -2.300000000000000      3.125000000000000
H      -1.902000000000000     -2.264000000000000      3.513000000000000
H      -4.625000000000000     -1.485000000000000      1.235000000000000
H      -3.441000000000000     -1.340000000000000     -0.122000000000000
H      -4.496000000000000      0.970000000000000      1.451000000000000
H      -4.677000000000000      0.464000000000000     -0.180000000000000
56

O       2.004000000000000      4.680000000000000     -5.143000000000000
C       2.755000000000000      3.463000000000000     -5.283000000000000
C       2.163000000000000      2.733000000000000     -6.565000000000000
O       2.729000000000000      1.418000000000000     -6.817000000000000
C       2.125000000000000      0.210000000000000     -6.247000000000000
C       0.929000000000000     -0.234000000000000     -7.205000000000000
O      -0.082000000000000     -0.957000000000000     -6.525000000000000
C      -0.804000000000000     -1.986000000000000     -7.254000000000000
C      -1.841000000000000     -2.711000000000000     -6.317000000000000
O      -2.261000000000000     -1.870000000000000     -5.193000000000000
C      -3.432000000000000     -0.949000000000000     -5.396000000000000
C      -3.780000000000000     -0.105000000000000     -4.122000000000000
O      -4.428000000000000      1.070000000000000     -4.630000000000000
C      -5.028000000000000      2.033000000000000     -3.661000000000000
C      -3.883000000000000      2.977000000000000     -3.190000000000000
O      -4.620000000000000      3.979000000000000     -2.460000000000000
C      -3.687000000000000      4.844000000000000     -1.778000000000000
C      -3.211000000000000      6.018000000000000     -2.709000000000000
O      -1.997000000000000      6.599000000000000     -2.088000000000000
C      -1.463000000000000      7.793000000000000     -2.764000000000000
C       0.067000000000000      7.833000000000000     -2.414000000000000
O       0.572000000000000      6.569000000000000     -2.796000000000000
C       1.504000000000000      6.785000000000000     -3.849000000000000
C       2.386000000000000      5.557000000000000     -4.023000000000000
H       3.832000000000000      3.632000000000000     -5.405000000000000
H       2.552000000000000      2.816000000000000     -4.420000000000000
H       2.296000000000000      3.386000000000000     -7.436000000000000
H       1.077000000000000      2.658000000000000     -6.428000000000000
H       1.761000000000000      0.445000000000000     -5.239000000000000
H       2.872000000000000     -0.589000000000000     -6.153000000000000
H       0.411000000000000      0.640000000000000     -7.618000000000000
H       1.268000000000000     -0.883000000000000     -8.022000000000000
H      -1.279000000000000     -1.556000000000000     -8.145000000000000
H      -0.075000000000000     -2.708000000000000     -7.643000000000000
H      -1.336000000000000     -3.633000000000000     -6.005000000000000
H      -2.720000000000000     -3.106000000000000     -6.843000000000000
H      -3.231000000000000     -0.334000000000000     -6.282000000000000
H      -4.346000000000000     -1.545000000000000     -5.508000000000000
H      -2.911000000000000      0.228000000000000     -3.541000000000000
H      -4.374000000000000     -0.630000000000000     -3.364000000000000
H      -5.377000000000000      1.521000000000000     -2.755000000000000
H      -5.864000000000000      2.589000000000000     -4.102000000000000
H      -3.144000000000000      2.446000000000000     -2.577000000000000
H      -3.419000000000000      3.414000000000000     -4.082000000000000
H      -2.761000000000000      4.320000000000000     -1.512000000000000
H      -4.003000000000000      5.128000000000000     -0.767000000000000
H      -4.010000000000000      6.770000000000000     -2.705000000000000
H      -3.003000000000000      5.655000000000000     -3.723000000000000
H      -1.661000000000000      7.777000000000000     -3.843000000000000
H      -2.029000000000000      8.702000000000000     -2.525000000000000
H       0.598000000000000      8.696000000000000     -2.834000000000000
H       0.127000000000000      7.848000000000000     -1.319000000000000
H       2.187000000000000      7.589000000000000     -3.551000000000000
H       1.010000000000000      7.173000000000000     -4.748000000000000
H       2.299000000000000      4.961000000000000     -3.106000000000000
H       3.426000000000000      5.905000000000000     -4.044000000000000
56

O       1.977000000000000      4.548000000000000     -2.480000000000000
C       2.585000000000000      3.394000000000000     -2.986000000000000
C       1.519000000000000      2.395000000000000     -3.534000000000000
O       1.995000000000000      1.046000000000000     -3.336000000000000
C       1.289000000000000      0.263000000000000     -2.366000000000000
C      -0.016000000000000     -0.367000000000000     -3.101000000000000
O      -0.619000000000000     -1.287000000000000     -2.143000000000000
C      -2.020000000000000     -1.586000000000000     -2.397000000000000
C      -2.579000000000000     -2.504000000000000     -1.224000000000000
O      -3.600000000000000     -1.926000000000000     -0.370000000000000
C      -3.778000000000000     -2.203000000000000      1.000000000000000
C      -4.311000000000000     -0.921000000000000      1.728000000000000
O      -3.269000000000000     -0.046000000000000      2.170000000000000
C      -3.578000000000000      1.329000000000000      2.066000000000000
C      -2.634000000000000      2.192000000000000      2.965000000000000
O      -3.136000000000000      3.538000000000000      2.959000000000000
C      -2.248000000000000      4.487000000000000      2.315000000000000
C      -1.132000000000000      4.971000000000000      3.262000000000000
O       0.101000000000000      5.187000000000000      2.580000000000000
C       0.169000000000000      6.458000000000000      1.840000000000000
C       1.545000000000000      6.736000000000000      1.184000000000000
O       1.852000000000000      5.783000000000000      0.103000000000000
C       2.138000000000000      6.526000000000000     -1.054000000000000
C       2.837000000000000      5.635000000000000     -2.119000000000000
H       3.249000000000000      3.657000000000000     -3.818000000000000
H       3.146000000000000      2.853000000000000     -2.214000000000000
H       1.243000000000000      2.509000000000000     -4.590000000000000
H       0.561000000000000      2.530000000000000     -3.016000000000000
H       1.060000000000000      0.944000000000000     -1.538000000000000
H       1.957000000000000     -0.517000000000000     -1.980000000000000
H      -0.754000000000000      0.417000000000000     -3.308000000000000
H       0.309000000000000     -0.870000000000000     -4.020000000000000
H      -2.658000000000000     -0.694000000000000     -2.396000000000000
H      -2.251000000000000     -2.077000000000000     -3.350000000000000
H      -1.640000000000000     -2.783000000000000     -0.731000000000000
H      -2.988000000000000     -3.439000000000000     -1.627000000000000
H      -4.516000000000000     -3.013000000000000      0.958000000000000
H      -2.846000000000000     -2.547000000000000      1.465000000000000
H      -4.886000000000000     -1.216000000000000      2.614000000000000
H      -5.082000000000000     -0.354000000000000      1.192000000000000
H      -4.629000000000000      1.504000000000000      2.331000000000000
H      -3.437000000000000      1.600000000000000      1.013000000000000
H      -2.720000000000000      1.895000000000000      4.017000000000000
H      -1.575000000000000      2.091000000000000      2.697000000000000
H      -2.783000000000000      5.385000000000000      1.983000000000000
H      -1.885000000000000      4.119000000000000      1.347000000000000
H      -0.896000000000000      4.254000000000000      4.058000000000000
H      -1.507000000000000      5.860000000000000      3.784000000000000
H      -0.695000000000000      6.519000000000000      1.166000000000000
H      -0.054000000000000      7.254000000000000      2.561000000000000
H       1.277000000000000      7.739000000000000      0.827000000000000
H       2.378000000000000      6.895000000000000      1.880000000000000
H       2.848000000000000      7.306000000000000     -0.753000000000000
H       1.164000000000000      6.864000000000000     -1.429000000000000
H       3.753000000000000      5.273000000000000     -1.637000000000000
H       3.138000000000000      6.165000000000000     -3.031000000000000
56

O       3.726000000000000      2.507000000000000     -3.004000000000000
C       3.698000000000000      1.129000000000000     -3.530000000000000
C       2.816000000000000      1.130000000000000     -4.741000000000000
O       2.876000000000000     -0.184000000000000     -5.304000000000000
C       1.701000000000000     -1.016000000000000     -5.107000000000000
C       0.489000000000000     -0.486000000000000     -6.064000000000000
O      -0.731000000000000     -1.246000000000000     -5.687000000000000
C      -1.978000000000000     -0.707000000000000     -6.238000000000000
C      -3.177000000000000     -1.396000000000000     -5.582000000000000
O      -4.179000000000000     -0.522000000000000     -5.001000000000000
C      -5.075000000000000     -1.199000000000000     -4.050000000000000
C      -4.649000000000000     -1.015000000000000     -2.602000000000000
O      -4.876000000000000      0.354000000000000     -2.113000000000000
C      -4.690000000000000      0.455000000000000     -0.709000000000000
C      -3.217000000000000      0.652000000000000     -0.387000000000000
O      -2.971000000000000      0.944000000000000      0.982000000000000
C      -1.542000000000000      0.927000000000000      1.232000000000000
C      -0.903000000000000      2.312000000000000      0.944000000000000
O       0.509000000000000      2.262000000000000      1.151000000000000
C       1.150000000000000      3.549000000000000      1.219000000000000
C       2.715000000000000      3.423000000000000      1.026000000000000
O       3.094000000000000      3.375000000000000     -0.325000000000000
C       4.192000000000000      2.410000000000000     -0.583000000000000
C       4.750000000000000      2.779000000000000     -1.979000000000000
H       4.694000000000000      0.807000000000000     -3.860000000000000
H       3.468000000000000      0.347000000000000     -2.795000000000000
H       3.217000000000000      1.853000000000000     -5.462000000000000
H       1.801000000000000      1.473000000000000     -4.504000000000000
H       1.463000000000000     -1.132000000000000     -4.042000000000000
H       1.995000000000000     -2.014000000000000     -5.456000000000000
H       0.273000000000000      0.526000000000000     -5.698000000000000
H       0.666000000000000     -0.489000000000000     -7.146000000000000
H      -2.071000000000000      0.377000000000000     -6.097000000000000
H      -2.160000000000000     -0.799000000000000     -7.316000000000000
H      -2.746000000000000     -2.049000000000000     -4.813000000000000
H      -3.720000000000000     -2.055000000000000     -6.271000000000000
H      -6.108000000000000     -0.844000000000000     -4.148000000000000
H      -4.980000000000000     -2.277000000000000     -4.235000000000000
H      -3.589000000000000     -1.298000000000000     -2.621000000000000
H      -5.128000000000000     -1.675000000000000     -1.868000000000000
H      -5.033000000000000     -0.447000000000000     -0.187000000000000
H      -5.122000000000000      1.401000000000000     -0.360000000000000
H      -2.679000000000000     -0.262000000000000     -0.668000000000000
H      -2.841000000000000      1.464000000000000     -1.021000000000000
H      -1.063000000000000      0.221000000000000      0.542000000000000
H      -1.333000000000000      0.628000000000000      2.266000000000000
H      -1.272000000000000      3.010000000000000      1.704000000000000
H      -1.216000000000000      2.662000000000000     -0.048000000000000
H       0.678000000000000      4.233000000000000      0.503000000000000
H       0.951000000000000      3.958000000000000      2.217000000000000
H       3.114000000000000      4.304000000000000      1.544000000000000
H       3.040000000000000      2.495000000000000      1.513000000000000
H       3.807000000000000      1.391000000000000     -0.457000000000000
H       5.020000000000000      2.629000000000000      0.102000000000000
H       5.681000000000000      2.240000000000000     -2.194000000000000
H       4.881000000000000      3.867000000000000     -2.026000000000000
56

O       4.690000000000000     -3.392000000000000      0.606000000000000
C       4.375000000000000     -4.760000000000000      0.396000000000000
C       3.086000000000000     -4.875000000000000     -0.412000000000000
O       1.905000000000000     -4.538000000000000      0.349000000000000
C       1.085000000000000     -5.576000000000000      1.027000000000000
C      -0.132000000000000     -4.913000000000000      1.808000000000000
O      -0.861000000000000     -6.001000000000000      2.371000000000000
C      -2.189000000000000     -5.644000000000000      2.920000000000000
C      -2.044000000000000     -4.959000000000000      4.311000000000000
O      -2.385000000000000     -3.555000000000000      4.160000000000000
C      -3.358000000000000     -2.936000000000000      4.973000000000000
C      -2.826000000000000     -2.638000000000000      6.310000000000000
O      -1.671000000000000     -1.825000000000000      6.230000000000000
C      -1.261000000000000     -1.188000000000000      7.462000000000000
C      -0.213000000000000     -0.084000000000000      7.205000000000000
O       0.907000000000000     -0.090000000000000      8.073000000000000
C       1.953000000000000     -1.044000000000000      7.657000000000000
C       2.682000000000000     -0.517000000000000      6.390000000000000
O       3.939000000000000     -1.174000000000000      6.284000000000000
C       4.786000000000000     -0.790000000000000      5.223000000000000
C       5.482000000000000     -2.099000000000000      4.700000000000000
O       5.568000000000000     -2.112000000000000      3.202000000000000
C       6.293000000000000     -3.176000000000000      2.624000000000000
C       6.117000000000000     -3.069000000000000      1.073000000000000
H       5.218000000000000     -5.202000000000000     -0.148000000000000
H       4.338000000000000     -5.295000000000000      1.354000000000000
H       2.955000000000000     -5.871000000000000     -0.854000000000000
H       3.122000000000000     -4.154000000000000     -1.238000000000000
H       1.627000000000000     -5.969000000000000      1.896000000000000
H       0.870000000000000     -6.402000000000000      0.339000000000000
H       0.322000000000000     -4.320000000000000      2.611000000000000
H      -0.717000000000000     -4.263000000000000      1.145000000000000
H      -2.635000000000000     -5.015000000000000      2.139000000000000
H      -2.761000000000000     -6.569000000000000      3.060000000000000
H      -0.981000000000000     -5.086000000000000      4.547000000000000
H      -2.679000000000000     -5.293000000000000      5.142000000000000
H      -3.478000000000000     -1.900000000000000      4.634000000000000
H      -4.315000000000000     -3.470000000000000      4.929000000000000
H      -2.574000000000000     -3.549000000000000      6.867000000000000
H      -3.686000000000000     -2.124000000000000      6.757000000000000
H      -0.930000000000000     -1.914000000000000      8.215000000000000
H      -2.084000000000000     -0.687000000000000      7.984000000000000
H       0.085000000000000     -0.014000000000000      6.151000000000000
H      -0.628000000000000      0.919000000000000      7.364000000000000
H       1.550000000000000     -2.060000000000000      7.562000000000000
H       2.755000000000000     -0.963000000000000      8.401000000000000
H       2.898000000000000      0.535000000000000      6.613000000000000
H       2.125000000000000     -0.778000000000000      5.481000000000000
H       4.189000000000000     -0.412000000000000      4.384000000000000
H       5.552000000000000     -0.090000000000000      5.579000000000000
H       6.493000000000000     -2.134000000000000      5.125000000000000
H       4.802000000000000     -2.909000000000000      4.992000000000000
H       5.916000000000000     -4.165000000000000      2.911000000000000
H       7.330000000000000     -3.075000000000000      2.966000000000000
H       6.923000000000000     -3.568000000000000      0.520000000000000
H       6.334000000000000     -2.031000000000000      0.790000000000000
56

O       4.043000000000000      0.285000000000000      5.221000000000000
C       5.364000000000000      0.772000000000000      4.774000000000000
C       5.404000000000000      0.737000000000000      3.140000000000000
O       5.450000000000000     -0.576000000000000      2.624000000000000
C       5.430000000000000     -0.614000000000000      1.177000000000000
C       5.979000000000000     -2.007000000000000      0.694000000000000
O       5.188000000000000     -2.251000000000000     -0.522000000000000
C       5.201000000000000     -3.603000000000000     -1.094000000000000
C       4.263000000000000     -3.520000000000000     -2.408000000000000
O       2.899000000000000     -3.935000000000000     -2.112000000000000
C       2.738000000000000     -5.331000000000000     -1.826000000000000
C       1.193000000000000     -5.646000000000000     -1.843000000000000
O       0.444000000000000     -4.539000000000000     -1.375000000000000
C      -0.267000000000000     -4.667000000000000     -0.070000000000000
C      -1.491000000000000     -3.726000000000000     -0.037000000000000
O      -2.239000000000000     -3.884000000000000      1.220000000000000
C      -1.502000000000000     -3.464000000000000      2.377000000000000
C      -2.073000000000000     -2.028000000000000      2.763000000000000
O      -1.943000000000000     -1.809000000000000      4.180000000000000
C      -0.596000000000000     -1.721000000000000      4.752000000000000
C      -0.233000000000000     -0.264000000000000      5.162000000000000
O       1.179000000000000     -0.333000000000000      5.624000000000000
C       1.804000000000000      0.889000000000000      6.106000000000000
C       3.004000000000000      1.386000000000000      5.319000000000000
H       5.417000000000000      1.834000000000000      5.045000000000000
H       6.208000000000000      0.251000000000000      5.242000000000000
H       6.329000000000000      1.231000000000000      2.816000000000000
H       4.526000000000000      1.258000000000000      2.739000000000000
H       6.012000000000000      0.158000000000000      0.658000000000000
H       4.416000000000000     -0.548000000000000      0.766000000000000
H       7.068000000000000     -2.053000000000000      0.569000000000000
H       5.733000000000000     -2.787000000000000      1.425000000000000
H       6.210000000000000     -3.929000000000000     -1.376000000000000
H       4.954000000000000     -4.416000000000000     -0.400000000000000
H       4.638000000000000     -4.045000000000000     -3.295000000000000
H       4.178000000000000     -2.462000000000000     -2.685000000000000
H       3.260000000000000     -5.947000000000000     -2.569000000000000
H       3.111000000000000     -5.666000000000000     -0.851000000000000
H       1.040000000000000     -6.532000000000000     -1.214000000000000
H       0.847000000000000     -5.868000000000000     -2.860000000000000
H       0.411000000000000     -4.412000000000000      0.754000000000000
H      -0.565000000000000     -5.714000000000000      0.067000000000000
H      -1.288000000000000     -2.657000000000000     -0.179000000000000
H      -2.125000000000000     -3.857000000000000     -0.923000000000000
H      -0.436000000000000     -3.330000000000000      2.156000000000000
H      -1.532000000000000     -4.233000000000000      3.158000000000000
H      -3.143000000000000     -1.989000000000000      2.523000000000000
H      -1.631000000000000     -1.194000000000000      2.203000000000000
H      -0.528000000000000     -2.276000000000000      5.696000000000000
H       0.164000000000000     -2.122000000000000      4.069000000000000
H      -0.351000000000000      0.536000000000000      4.420000000000000
H      -0.894000000000000     -0.074000000000000      6.016000000000000
H       2.127000000000000      0.752000000000000      7.145000000000000
H       1.056000000000000      1.664000000000000      6.314000000000000
H       3.386000000000000      2.263000000000000      5.855000000000000
H       2.690000000000000      1.586000000000000      4.288000000000000
56

O       2.882000000000000     -2.932000000000000      3.405000000000000
C       2.819000000000000     -2.737000000000000      1.966000000000000
C       2.786000000000000     -4.049000000000000      1.213000000000000
O       3.684000000000000     -3.997000000000000      0.116000000000000
C       3.217000000000000     -3.378000000000000     -1.071000000000000
C       2.407000000000000     -4.497000000000000     -1.884000000000000
O       1.533000000000000     -3.786000000000000     -2.729000000000000
C       0.481000000000000     -4.432000000000000     -3.348000000000000
C      -0.829000000000000     -3.559000000000000     -3.498000000000000
O      -1.917000000000000     -4.025000000000000     -2.672000000000000
C      -2.924000000000000     -3.023000000000000     -2.476000000000000
C      -3.879000000000000     -3.576000000000000     -1.398000000000000
O      -4.686000000000000     -2.451000000000000     -0.943000000000000
C      -4.089000000000000     -1.597000000000000      0.090000000000000
C      -4.667000000000000     -2.020000000000000      1.429000000000000
O      -4.037000000000000     -1.119000000000000      2.393000000000000
C      -4.386000000000000     -1.285000000000000      3.777000000000000
C      -3.468000000000000     -0.436000000000000      4.578000000000000
O      -2.806000000000000     -1.277000000000000      5.503000000000000
C      -1.937000000000000     -0.583000000000000      6.403000000000000
C      -0.546000000000000     -0.396000000000000      5.726000000000000
O       0.125000000000000     -1.660000000000000      5.434000000000000
C       1.392000000000000     -1.637000000000000      4.692000000000000
C       1.641000000000000     -2.913000000000000      4.122000000000000
H       2.004000000000000     -2.058000000000000      1.688000000000000
H       3.709000000000000     -2.185000000000000      1.640000000000000
H       1.749000000000000     -4.217000000000000      0.896000000000000
H       2.938000000000000     -4.868000000000000      1.926000000000000
H       4.077000000000000     -3.145000000000000     -1.711000000000000
H       2.736000000000000     -2.414000000000000     -0.866000000000000
H       3.125000000000000     -5.035000000000000     -2.515000000000000
H       1.788000000000000     -5.072000000000000     -1.184000000000000
H       0.781000000000000     -4.693000000000000     -4.371000000000000
H       0.184000000000000     -5.336000000000000     -2.803000000000000
H      -1.080000000000000     -3.466000000000000     -4.562000000000000
H      -0.508000000000000     -2.535000000000000     -3.267000000000000
H      -2.416000000000000     -2.101000000000000     -2.167000000000000
H      -3.471000000000000     -2.880000000000000     -3.416000000000000
H      -3.313000000000000     -4.123000000000000     -0.634000000000000
H      -4.463000000000000     -4.309000000000000     -1.968000000000000
H      -4.209000000000000     -0.550000000000000     -0.214000000000000
H      -3.000000000000000     -1.722000000000000      0.138000000000000
H      -5.758000000000000     -1.911000000000000      1.469000000000000
H      -4.391000000000000     -3.066000000000000      1.611000000000000
H      -4.364000000000000     -2.353000000000000      4.029000000000000
H      -5.449000000000000     -1.086000000000000      3.960000000000000
H      -4.000000000000000      0.415000000000000      5.022000000000000
H      -2.705000000000000     -0.140000000000000      3.847000000000000
H      -2.348000000000000      0.389000000000000      6.705000000000000
H      -1.919000000000000     -1.165000000000000      7.332000000000000
H      -0.748000000000000      0.132000000000000      4.786000000000000
H       0.151000000000000      0.238000000000000      6.288000000000000
H       2.164000000000000     -1.384000000000000      5.430000000000000
H       1.391000000000000     -0.828000000000000      3.951000000000000
H       0.823000000000000     -3.237000000000000      3.468000000000000
H       1.661000000000000     -3.614000000000000      4.965000000000000
56

O       1.486000000000000      0.229000000000000      4.372000000000000
C       1.366000000000000      0.203000000000000      2.908000000000000
C       2.652000000000000     -0.452000000000000      2.146000000000000
O       2.703000000000000     -0.064000000000000      0.769000000000000
C       3.465000000000000     -0.817000000000000     -0.185000000000000
C       3.502000000000000     -0.086000000000000     -1.568000000000000
O       2.202000000000000      0.117000000000000     -2.069000000000000
C       1.600000000000000     -0.809000000000000     -3.039000000000000
C       0.240000000000000     -0.211000000000000     -3.545000000000000
O      -0.979000000000000     -0.948000000000000     -3.086000000000000
C      -2.079000000000000      0.015000000000000     -2.907000000000000
C      -3.183000000000000     -0.636000000000000     -2.056000000000000
O      -4.399000000000000      0.096000000000000     -2.037000000000000
C      -4.543000000000000      1.123000000000000     -0.975000000000000
C      -5.016000000000000      0.455000000000000      0.314000000000000
O      -5.244000000000000      1.539000000000000      1.288000000000000
C      -6.260000000000000      1.305000000000000      2.312000000000000
C      -5.841000000000000      2.043000000000000      3.607000000000000
O      -4.638000000000000      1.439000000000000      4.125000000000000
C      -3.784000000000000      2.349000000000000      4.877000000000000
C      -2.943000000000000      1.568000000000000      5.927000000000000
O      -2.041000000000000      0.591000000000000      5.225000000000000
C      -0.732000000000000      1.083000000000000      4.878000000000000
C       0.291000000000000     -0.049000000000000      5.118000000000000
H       0.579000000000000     -0.520000000000000      2.661000000000000
H       0.995000000000000      1.127000000000000      2.446000000000000
H       2.499000000000000     -1.534000000000000      2.245000000000000
H       3.498000000000000     -0.055000000000000      2.720000000000000
H       3.038000000000000     -1.823000000000000     -0.285000000000000
H       4.483000000000000     -0.844000000000000      0.223000000000000
H       3.947000000000000      0.885000000000000     -1.317000000000000
H       4.026000000000000     -0.688000000000000     -2.321000000000000
H       2.176000000000000     -0.986000000000000     -3.956000000000000
H       1.377000000000000     -1.755000000000000     -2.531000000000000
H       0.207000000000000     -0.077000000000000     -4.633000000000000
H       0.208000000000000      0.795000000000000     -3.109000000000000
H      -1.589000000000000      0.770000000000000     -2.279000000000000
H      -2.468000000000000      0.405000000000000     -3.855000000000000
H      -2.819000000000000     -0.760000000000000     -1.029000000000000
H      -3.299000000000000     -1.577000000000000     -2.607000000000000
H      -5.269000000000000      1.844000000000000     -1.370000000000000
H      -3.582000000000000      1.614000000000000     -0.782000000000000
H      -5.919000000000000     -0.123000000000000      0.080000000000000
H      -4.371000000000000     -0.313000000000000      0.758000000000000
H      -6.182000000000000      0.225000000000000      2.489000000000000
H      -7.292000000000000      1.515000000000000      2.004000000000000
H      -6.636000000000000      2.054000000000000      4.363000000000000
H      -5.639000000000000      3.081000000000000      3.315000000000000
H      -3.221000000000000      2.943000000000000      4.147000000000000
H      -4.416000000000000      3.116000000000000      5.341000000000000
H      -2.304000000000000      2.272000000000000      6.474000000000000
H      -3.613000000000000      1.063000000000000      6.634000000000000
H      -0.494000000000000      1.914000000000000      5.553000000000000
H      -0.714000000000000      1.487000000000000      3.858000000000000
H      -0.069000000000000     -1.027000000000000      4.777000000000000
H       0.498000000000000     -0.173000000000000      6.188000000000000
56

O      -0.029000000000000     -3.581000000000000      5.059000000000000
C       1.184000000000000     -3.464000000000000      4.288000000000000
C       1.486000000000000     -4.884000000000000      3.709000000000000
O       2.512000000000000     -4.809000000000000      2.670000000000000
C       3.387000000000000     -5.924000000000000      2.339000000000000
C       2.708000000000000     -7.088000000000000      1.620000000000000
O       2.195000000000000     -6.609000000000000      0.342000000000000
C       1.996000000000000     -7.583000000000000     -0.765000000000000
C       1.201000000000000     -7.026000000000000     -1.941000000000000
O      -0.024000000000000     -6.593000000000000     -1.507000000000000
C      -1.062000000000000     -6.587000000000000     -2.489000000000000
C      -2.413000000000000     -6.566000000000000     -1.735000000000000
O      -3.499000000000000     -6.002000000000000     -2.620000000000000
C      -4.134000000000000     -4.777000000000000     -2.079000000000000
C      -5.188000000000000     -5.219000000000000     -1.091000000000000
O      -5.658000000000000     -4.033000000000000     -0.447000000000000
C      -6.486000000000000     -4.225000000000000      0.685000000000000
C      -6.743000000000000     -2.857000000000000      1.301000000000000
O      -5.752000000000000     -2.674000000000000      2.357000000000000
C      -5.942000000000000     -3.468000000000000      3.567000000000000
C      -4.872000000000000     -3.017000000000000      4.629000000000000
O      -3.585000000000000     -3.661000000000000      4.406000000000000
C      -2.445000000000000     -3.060000000000000      5.202000000000000
C      -1.233000000000000     -3.528000000000000      4.335000000000000
H       1.081000000000000     -2.736000000000000      3.474000000000000
H       2.016000000000000     -3.263000000000000      4.974000000000000
H       0.577000000000000     -5.350000000000000      3.308000000000000
H       1.753000000000000     -5.500000000000000      4.577000000000000
H       3.818000000000000     -6.244000000000000      3.296000000000000
H       4.235000000000000     -5.665000000000000      1.693000000000000
H       3.383000000000000     -7.949000000000000      1.545000000000000
H       1.876000000000000     -7.461000000000000      2.230000000000000
H       3.000000000000000     -7.714000000000000     -1.188000000000000
H       1.567000000000000     -8.542000000000000     -0.450000000000000
H       1.131000000000000     -7.783000000000000     -2.731000000000000
H       1.757000000000000     -6.213000000000000     -2.424000000000000
H      -0.968000000000000     -5.693000000000000     -3.118000000000000
H      -0.973000000000000     -7.508000000000000     -3.078000000000000
H      -2.294000000000000     -5.897000000000000     -0.874000000000000
H      -2.721000000000000     -7.558000000000000     -1.382000000000000
H      -4.643000000000000     -4.234000000000000     -2.885000000000000
H      -3.428000000000000     -4.220000000000000     -1.452000000000000
H      -5.978000000000000     -5.708000000000000     -1.673000000000000
H      -4.812000000000000     -5.929000000000000     -0.344000000000000
H      -6.089000000000000     -4.989000000000000      1.365000000000000
H      -7.442000000000000     -4.535000000000000      0.246000000000000
H      -7.728000000000000     -2.728000000000000      1.766000000000000
H      -6.603000000000000     -2.012000000000000      0.615000000000000
H      -6.974000000000000     -3.256000000000000      3.871000000000000
H      -5.750000000000000     -4.542000000000000      3.446000000000000
H      -4.798000000000000     -1.925000000000000      4.704000000000000
H      -5.363000000000000     -3.433000000000000      5.517000000000000
H      -2.306000000000000     -3.385000000000000      6.240000000000000
H      -2.520000000000000     -1.972000000000000      5.090000000000000
H      -1.170000000000000     -2.856000000000000      3.471000000000000
H      -1.410000000000000     -4.556000000000000      3.994000000000000
56

O       1.591000000000000      2.074000000000000      3.178000000000000
C       2.445000000000000      1.121000000000000      2.450000000000000
C       2.648000000000000      1.525000000000000      1.001000000000000
O       3.131000000000000      0.451000000000000      0.261000000000000
C       2.129000000000000     -0.356000000000000     -0.463000000000000
C       2.016000000000000      0.302000000000000     -1.875000000000000
O       0.874000000000000     -0.419000000000000     -2.577000000000000
C       0.753000000000000     -0.263000000000000     -4.010000000000000
C      -0.189000000000000      0.889000000000000     -4.457000000000000
O      -1.514000000000000      1.046000000000000     -3.866000000000000
C      -2.153000000000000      2.285000000000000     -4.140000000000000
C      -3.286000000000000      2.475000000000000     -3.111000000000000
O      -3.706000000000000      3.901000000000000     -3.336000000000000
C      -3.276000000000000      4.907000000000000     -2.380000000000000
C      -3.988000000000000      4.566000000000000     -1.060000000000000
O      -4.059000000000000      5.589000000000000     -0.018000000000000
C      -2.768000000000000      6.065000000000000      0.448000000000000
C      -2.861000000000000      6.484000000000000      1.960000000000000
O      -1.906000000000000      5.719000000000000      2.774000000000000
C      -1.249000000000000      6.390000000000000      3.894000000000000
C       0.234000000000000      5.901000000000000      4.006000000000000
O       0.192000000000000      4.488000000000000      4.334000000000000
C       1.485000000000000      3.869000000000000      4.760000000000000
C       2.141000000000000      3.392000000000000      3.468000000000000
H       3.424000000000000      0.880000000000000      2.884000000000000
H       1.928000000000000      0.155000000000000      2.405000000000000
H       3.223000000000000      2.446000000000000      0.842000000000000
H       1.700000000000000      1.818000000000000      0.532000000000000
H       1.191000000000000     -0.297000000000000      0.103000000000000
H       2.548000000000000     -1.369000000000000     -0.499000000000000
H       1.799000000000000      1.370000000000000     -1.748000000000000
H       3.020000000000000      0.173000000000000     -2.300000000000000
H       1.759000000000000     -0.121000000000000     -4.424000000000000
H       0.365000000000000     -1.196000000000000     -4.439000000000000
H      -0.371000000000000      0.906000000000000     -5.538000000000000
H       0.359000000000000      1.800000000000000     -4.188000000000000
H      -1.419000000000000      3.093000000000000     -4.029000000000000
H      -2.554000000000000      2.366000000000000     -5.158000000000000
H      -3.027000000000000      2.137000000000000     -2.100000000000000
H      -4.111000000000000      1.809000000000000     -3.393000000000000
H      -3.681000000000000      5.875000000000000     -2.699000000000000
H      -2.182000000000000      4.987000000000000     -2.394000000000000
H      -5.027000000000000      4.388000000000000     -1.364000000000000
H      -3.580000000000000      3.639000000000000     -0.640000000000000
H      -2.367000000000000      6.809000000000000     -0.252000000000000
H      -2.012000000000000      5.285000000000000      0.300000000000000
H      -3.854000000000000      6.298000000000000      2.388000000000000
H      -2.752000000000000      7.565000000000000      2.112000000000000
H      -1.256000000000000      7.481000000000000      3.779000000000000
H      -1.820000000000000      6.097000000000000      4.784000000000000
H       0.832000000000000      6.071000000000000      3.102000000000000
H       0.647000000000000      6.488000000000000      4.836000000000000
H       1.223000000000000      3.103000000000000      5.500000000000000
H       2.156000000000000      4.619000000000000      5.197000000000000
H       3.235000000000000      3.461000000000000      3.521000000000000
H       1.907000000000000      4.116000000000000      2.677000000000000
56

O      -1.841000000000000      8.425000000000001     -0.100000000000000
C      -0.373000000000000      8.276999999999999     -0.156000000000000
C       0.316000000000000      9.098000000000001      0.964000000000000
O       1.603000000000000      8.503000000000000      1.459000000000000
C       2.741000000000000      8.893000000000001      0.588000000000000
C       3.917000000000000      7.902000000000000      0.902000000000000
O       4.878000000000000      7.748000000000000     -0.063000000000000
C       5.691000000000000      6.600000000000000      0.042000000000000
C       6.693000000000000      6.513000000000000     -1.132000000000000
O       5.987000000000000      6.104000000000000     -2.323000000000000
C       6.699000000000000      5.413000000000000     -3.330000000000000
C       5.783000000000000      5.357000000000000     -4.671000000000000
O       4.393000000000000      5.173000000000000     -4.302000000000000
C       3.437000000000000      5.402000000000000     -5.413000000000000
C       2.171000000000000      4.347000000000000     -5.293000000000000
O       1.241000000000000      4.517000000000000     -6.413000000000000
C       0.410000000000000      5.665000000000000     -6.355000000000000
C      -1.012000000000000      5.238000000000000     -5.775000000000000
O      -1.862000000000000      6.384000000000000     -5.624000000000000
C      -3.166000000000000      6.189000000000000     -5.108000000000000
C      -3.621000000000000      7.490000000000000     -4.452000000000000
O      -3.815000000000000      7.240000000000000     -3.006000000000000
C      -3.141000000000000      8.266000000000000     -2.146000000000000
C      -2.735000000000000      7.613000000000000     -0.831000000000000
H      -0.254000000000000      7.215000000000000      0.093000000000000
H       0.166000000000000      8.535000000000000     -1.077000000000000
H      -0.396000000000000      9.340000000000000      1.763000000000000
H       0.455000000000000     10.096000000000000      0.530000000000000
H       3.106000000000000      9.891000000000000      0.859000000000000
H       2.419000000000000      8.781000000000001     -0.455000000000000
H       4.368000000000000      8.208000000000000      1.854000000000000
H       3.531000000000000      6.903000000000000      1.138000000000000
H       6.293000000000000      6.534000000000000      0.956000000000000
H       5.106000000000000      5.676000000000000     -0.036000000000000
H       7.496000000000000      5.790000000000000     -0.940000000000000
H       7.276000000000000      7.434000000000000     -1.252000000000000
H       7.574000000000000      6.035000000000000     -3.560000000000000
H       6.907000000000000      4.416000000000000     -2.923000000000000
H       6.191000000000000      4.589000000000000     -5.339000000000000
H       5.855000000000000      6.300000000000000     -5.227000000000000
H       4.039000000000000      5.157000000000000     -6.297000000000000
H       3.088000000000000      6.442000000000000     -5.395000000000000
H       2.685000000000000      3.379000000000000     -5.336000000000000
H       1.609000000000000      4.466000000000000     -4.358000000000000
H       0.207000000000000      6.261000000000000     -7.253000000000000
H       0.822000000000000      6.394000000000000     -5.646000000000000
H      -0.846000000000000      4.586000000000000     -4.909000000000000
H      -1.416000000000000      4.623000000000000     -6.589000000000000
H      -3.739000000000000      5.948000000000000     -6.012000000000000
H      -3.297000000000000      5.290000000000000     -4.494000000000000
H      -2.901000000000000      8.288000000000000     -4.668000000000000
H      -4.561000000000000      7.842000000000000     -4.896000000000000
H      -3.760000000000000      9.156000000000001     -1.980000000000000
H      -2.175000000000000      8.570000000000000     -2.568000000000000
H      -2.232000000000000      6.674000000000000     -1.091000000000000
H      -3.611000000000000      7.495000000000000     -0.181000000000000
56

O      -3.282000000000000      7.881000000000000     -2.959000000000000
C      -2.102000000000000      8.548999999999999     -2.366000000000000
C      -1.998000000000000      8.167000000000000     -0.926000000000000
O      -0.871000000000000      8.818000000000000     -0.179000000000000
C      -0.961000000000000      8.755000000000001      1.220000000000000
C       0.447000000000000      8.833000000000000      1.869000000000000
O       1.241000000000000      7.636000000000000      1.831000000000000
C       2.501000000000000      7.680000000000000      2.583000000000000
C       3.603000000000000      8.491000000000000      1.866000000000000
O       3.731000000000000      7.901000000000000      0.584000000000000
C       4.536000000000000      6.670000000000000      0.504000000000000
C       5.544000000000000      6.744000000000000     -0.550000000000000
O       4.950000000000000      6.777000000000000     -1.863000000000000
C       4.494000000000000      5.528000000000000     -2.379000000000000
C       4.445000000000000      5.671000000000000     -3.959000000000000
O       3.535000000000000      4.718000000000000     -4.452000000000000
C       3.562000000000000      4.534000000000000     -5.918000000000000
C       2.208000000000000      3.904000000000000     -6.411000000000000
O       1.211000000000000      4.958000000000000     -6.551000000000000
C      -0.177000000000000      4.610000000000000     -6.806000000000000
C      -1.144000000000000      5.819000000000000     -6.698000000000000
O      -1.974000000000000      5.680000000000000     -5.505000000000000
C      -2.614000000000000      6.871000000000000     -5.017000000000000
C      -2.904000000000000      6.639000000000000     -3.521000000000000
H      -1.134000000000000      8.250999999999999     -2.787000000000000
H      -2.078000000000000      9.641999999999999     -2.461000000000000
H      -1.972000000000000      7.071000000000000     -0.877000000000000
H      -2.957000000000000      8.327000000000000     -0.418000000000000
H      -1.268000000000000      7.751000000000000      1.540000000000000
H      -1.633000000000000      9.542999999999999      1.581000000000000
H       1.021000000000000      9.625999999999999      1.374000000000000
H       0.282000000000000      9.105000000000000      2.919000000000000
H       2.360000000000000      8.228000000000000      3.522000000000000
H       2.833000000000000      6.668000000000000      2.845000000000000
H       4.546000000000000      8.667000000000000      2.397000000000000
H       3.188000000000000      9.494000000000000      1.710000000000000
H       5.079000000000000      6.582000000000000      1.453000000000000
H       3.903000000000000      5.775000000000000      0.469000000000000
H       6.343000000000000      6.000000000000000     -0.453000000000000
H       6.089000000000000      7.677000000000000     -0.360000000000000
H       3.540000000000000      5.217000000000000     -1.937000000000000
H       5.255000000000000      4.755000000000000     -2.216000000000000
H       4.113000000000000      6.700000000000000     -4.142000000000000
H       5.423000000000000      5.499000000000000     -4.424000000000000
H       4.339000000000000      3.780000000000000     -6.097000000000000
H       3.872000000000000      5.419000000000000     -6.487000000000000
H       1.926000000000000      3.313000000000000     -5.530000000000000
H       2.389000000000000      3.395000000000000     -7.366000000000000
H      -0.204000000000000      4.267000000000000     -7.848000000000000
H      -0.446000000000000      3.711000000000000     -6.238000000000000
H      -0.529000000000000      6.723000000000000     -6.612000000000000
H      -1.850000000000000      5.877000000000000     -7.536000000000000
H      -3.653000000000000      6.872000000000000     -5.369000000000000
H      -2.204000000000000      7.865000000000000     -5.238000000000000
H      -1.988000000000000      6.264000000000000     -3.049000000000000
H      -3.782000000000000      6.011000000000000     -3.324000000000000
56

O      -1.711000000000000      4.890000000000000     -3.108000000000000
C      -1.160000000000000      5.087000000000000     -1.796000000000000
C      -1.948000000000000      4.244000000000000     -0.726000000000000
O      -1.327000000000000      4.465000000000000      0.515000000000000
C      -2.065000000000000      3.883000000000000      1.650000000000000
C      -1.085000000000000      3.667000000000000      2.793000000000000
O      -1.185000000000000      2.291000000000000      3.256000000000000
C      -0.221000000000000      1.936000000000000      4.287000000000000
C       0.736000000000000      0.688000000000000      3.930000000000000
O       1.566000000000000      1.011000000000000      2.871000000000000
C       2.841000000000000      0.276000000000000      2.677000000000000
C       2.693000000000000     -0.982000000000000      1.659000000000000
O       3.894000000000000     -1.145000000000000      0.825000000000000
C       3.916000000000000     -0.441000000000000     -0.488000000000000
C       3.846000000000000     -1.461000000000000     -1.634000000000000
O       4.074000000000000     -0.702000000000000     -2.832000000000000
C       3.547000000000000     -1.309000000000000     -4.037000000000000
C       3.799000000000000     -0.400000000000000     -5.258000000000000
O       3.069000000000000      0.814000000000000     -5.048000000000000
C       2.009000000000000      1.093000000000000     -5.948000000000000
C       1.543000000000000      2.588000000000000     -5.896000000000000
O       0.417000000000000      2.596000000000000     -4.932000000000000
C      -0.122000000000000      3.861000000000000     -4.699000000000000
C      -1.257000000000000      3.631000000000000     -3.653000000000000
H      -0.116000000000000      4.756000000000000     -1.731000000000000
H      -1.288000000000000      6.129000000000000     -1.478000000000000
H      -1.857000000000000      3.193000000000000     -1.025000000000000
H      -2.978000000000000      4.594000000000000     -0.585000000000000
H      -2.323000000000000      2.890000000000000      1.261000000000000
H      -3.035000000000000      4.283000000000000      1.970000000000000
H      -0.059000000000000      3.896000000000000      2.479000000000000
H      -1.516000000000000      4.322000000000000      3.561000000000000
H       0.370000000000000      2.828000000000000      4.529000000000000
H      -0.896000000000000      1.661000000000000      5.106000000000000
H       0.088000000000000     -0.129000000000000      3.589000000000000
H       1.481000000000000      0.349000000000000      4.660000000000000
H       3.482000000000000      0.950000000000000      2.095000000000000
H       3.235000000000000     -0.116000000000000      3.623000000000000
H       1.799000000000000     -0.926000000000000      1.026000000000000
H       2.508000000000000     -1.929000000000000      2.181000000000000
H       4.843000000000000      0.144000000000000     -0.544000000000000
H       3.126000000000000      0.312000000000000     -0.601000000000000
H       4.640000000000000     -2.192000000000000     -1.439000000000000
H       2.871000000000000     -1.963000000000000     -1.582000000000000
H       2.500000000000000     -1.628000000000000     -3.955000000000000
H       4.084000000000000     -2.240000000000000     -4.255000000000000
H       3.474000000000000     -0.865000000000000     -6.197000000000000
H       4.887000000000000     -0.268000000000000     -5.294000000000000
H       2.438000000000000      0.929000000000000     -6.944000000000000
H       1.216000000000000      0.355000000000000     -5.774000000000000
H       2.388000000000000      3.258000000000000     -5.695000000000000
H       1.022000000000000      2.862000000000000     -6.822000000000000
H      -0.469000000000000      4.328000000000000     -5.629000000000000
H       0.675000000000000      4.475000000000000     -4.261000000000000
H      -0.846000000000000      3.023000000000000     -2.838000000000000
H      -2.050000000000000      3.055000000000000     -4.146000000000000
56

O      -3.385000000000000      2.343000000000000     -4.020000000000000
C      -4.149000000000000      2.811000000000000     -2.838000000000000
C      -5.236000000000000      1.835000000000000     -2.449000000000000
O      -5.755000000000000      2.088000000000000     -1.080000000000000
C      -4.908000000000000      1.697000000000000      0.068000000000000
C      -5.528000000000000      0.445000000000000      0.734000000000000
O      -4.614000000000000      0.137000000000000      1.802000000000000
C      -4.948000000000000     -1.067000000000000      2.545000000000000
C      -3.619000000000000     -1.422000000000000      3.302000000000000
O      -2.571000000000000     -1.738000000000000      2.314000000000000
C      -1.588000000000000     -2.761000000000000      2.681000000000000
C      -0.483000000000000     -2.717000000000000      1.567000000000000
O      -0.873000000000000     -3.472000000000000      0.428000000000000
C       0.076000000000000     -3.361000000000000     -0.663000000000000
C      -0.610000000000000     -4.037000000000000     -1.845000000000000
O       0.425000000000000     -4.018000000000000     -2.934000000000000
C       0.615000000000000     -2.746000000000000     -3.670000000000000
C      -0.217000000000000     -2.870000000000000     -4.917000000000000
O      -0.270000000000000     -1.479000000000000     -5.408000000000000
C      -1.419000000000000     -1.249000000000000     -6.342000000000000
C      -1.285000000000000      0.243000000000000     -6.860000000000000
O      -2.110000000000000      1.100000000000000     -6.035000000000000
C      -3.473000000000000      1.348000000000000     -6.380000000000000
C      -4.107000000000000      2.359000000000000     -5.295000000000000
H      -3.434000000000000      2.876000000000000     -2.008000000000000
H      -4.499000000000000      3.836000000000000     -3.011000000000000
H      -4.793000000000000      0.831000000000000     -2.483000000000000
H      -6.090000000000000      1.894000000000000     -3.134000000000000
H      -4.996000000000000      2.574000000000000      0.721000000000000
H      -3.941000000000000      1.411000000000000     -0.365000000000000
H      -6.561000000000000      0.637000000000000      1.051000000000000
H      -5.606000000000000     -0.469000000000000      0.133000000000000
H      -5.699000000000000     -0.986000000000000      3.341000000000000
H      -5.117000000000000     -1.954000000000000      1.922000000000000
H      -3.788000000000000     -2.364000000000000      3.840000000000000
H      -3.283000000000000     -0.657000000000000      4.013000000000000
H      -1.134000000000000     -2.523000000000000      3.650000000000000
H      -2.085000000000000     -3.738000000000000      2.722000000000000
H       0.429000000000000     -3.158000000000000      1.988000000000000
H      -0.235000000000000     -1.698000000000000      1.247000000000000
H       1.044000000000000     -3.786000000000000     -0.369000000000000
H       0.058000000000000     -2.288000000000000     -0.887000000000000
H      -0.813000000000000     -5.073000000000000     -1.548000000000000
H      -1.515000000000000     -3.505000000000000     -2.165000000000000
H       1.669000000000000     -2.742000000000000     -3.976000000000000
H       0.183000000000000     -1.874000000000000     -3.165000000000000
H      -1.260000000000000     -3.159000000000000     -4.743000000000000
H       0.161000000000000     -3.571000000000000     -5.672000000000000
H      -1.199000000000000     -1.844000000000000     -7.237000000000000
H      -2.429000000000000     -1.441000000000000     -5.958000000000000
H      -0.242000000000000      0.577000000000000     -6.809000000000000
H      -1.563000000000000      0.396000000000000     -7.911000000000000
H      -4.038000000000000      0.409000000000000     -6.336000000000000
H      -3.613000000000000      1.872000000000000     -7.334000000000000
H      -5.159000000000000      2.074000000000000     -5.171000000000000
H      -4.085000000000000      3.361000000000000     -5.742000000000000
56

O      -1.471000000000000     -2.614000000000000     -7.511000000000000
C      -2.683000000000000     -2.824000000000000     -8.263000000000000
C      -3.957000000000000     -2.748000000000000     -7.311000000000000
O      -4.338000000000000     -1.368000000000000     -7.010000000000000
C      -4.323000000000000     -0.956000000000000     -5.633000000000000
C      -5.554000000000000     -1.459000000000000     -4.907000000000000
O      -5.295000000000000     -1.120000000000000     -3.489000000000000
C      -6.296000000000000     -1.489000000000000     -2.523000000000000
C      -6.025000000000000     -0.851000000000000     -1.212000000000000
O      -5.103000000000000     -1.478000000000000     -0.400000000000000
C      -5.605000000000000     -2.570000000000000      0.411000000000000
C      -4.365000000000000     -3.211000000000000      1.217000000000000
O      -3.795000000000000     -4.230000000000000      0.346000000000000
C      -2.629000000000000     -4.893000000000000      0.757000000000000
C      -2.283000000000000     -6.021000000000000     -0.261000000000000
O      -0.892000000000000     -6.099000000000000     -0.305000000000000
C      -0.166000000000000     -5.390000000000000     -1.337000000000000
C       0.046000000000000     -6.255000000000000     -2.589000000000000
O       1.035000000000000     -5.523000000000000     -3.453000000000000
C       1.337000000000000     -6.191000000000000     -4.655000000000000
C       1.736000000000000     -5.244000000000000     -5.859000000000000
O       0.622000000000000     -4.418000000000000     -6.160000000000000
C      -0.161000000000000     -4.658000000000000     -7.433000000000000
C      -0.396000000000000     -3.298000000000000     -8.121000000000000
H      -2.698000000000000     -2.072000000000000     -9.061000000000000
H      -2.772000000000000     -3.849000000000000     -8.644000000000000
H      -3.536000000000000     -3.205000000000000     -6.408000000000000
H      -4.768000000000000     -3.238000000000000     -7.864000000000000
H      -4.325000000000000      0.134000000000000     -5.513000000000000
H      -3.445000000000000     -1.228000000000000     -5.034000000000000
H      -6.436000000000000     -0.948000000000000     -5.312000000000000
H      -5.627000000000000     -2.546000000000000     -5.029000000000000
H      -7.280000000000000     -1.280000000000000     -2.961000000000000
H      -6.206000000000000     -2.577000000000000     -2.418000000000000
H      -6.937000000000000     -0.636000000000000     -0.642000000000000
H      -5.604000000000000      0.136000000000000     -1.442000000000000
H      -6.324000000000000     -2.196000000000000      1.151000000000000
H      -6.123000000000000     -3.288000000000000     -0.237000000000000
H      -4.688000000000000     -3.671000000000000      2.159000000000000
H      -3.577000000000000     -2.461000000000000      1.357000000000000
H      -2.866000000000000     -5.407000000000000      1.697000000000000
H      -1.804000000000000     -4.178000000000000      0.868000000000000
H      -2.667000000000000     -6.966000000000000      0.142000000000000
H      -2.747000000000000     -5.788000000000000     -1.227000000000000
H       0.856000000000000     -5.219000000000000     -0.978000000000000
H      -0.629000000000000     -4.415000000000000     -1.533000000000000
H      -0.921000000000000     -6.272000000000000     -3.108000000000000
H       0.430000000000000     -7.220000000000000     -2.235000000000000
H       2.138000000000000     -6.934000000000000     -4.559000000000000
H       0.420000000000000     -6.718000000000000     -4.946000000000000
H       2.642000000000000     -4.659000000000000     -5.657000000000000
H       2.083000000000000     -5.837000000000000     -6.713000000000000
H      -1.136000000000000     -5.057000000000000     -7.129000000000000
H       0.446000000000000     -5.286000000000000     -8.097000000000000
H      -0.544000000000000     -3.491000000000000     -9.191000000000001
H       0.475000000000000     -2.638000000000000     -8.035000000000000
56

O      -4.724000000000000     -1.359000000000000     -5.012000000000000
C      -5.521000000000000     -0.726000000000000     -3.938000000000000
C      -5.813000000000000     -1.728000000000000     -2.711000000000000
O      -6.404000000000000     -0.989000000000000     -1.655000000000000
C      -5.675000000000000     -0.857000000000000     -0.413000000000000
C      -6.055000000000000     -2.014000000000000      0.438000000000000
O      -5.150000000000000     -2.151000000000000      1.510000000000000
C      -5.507000000000000     -3.335000000000000      2.343000000000000
C      -4.323000000000000     -3.829000000000000      3.223000000000000
O      -3.433000000000000     -4.813000000000000      2.558000000000000
C      -3.616000000000000     -6.164000000000000      2.792000000000000
C      -2.392000000000000     -6.912000000000000      2.261000000000000
O      -2.599000000000000     -7.323000000000000      0.917000000000000
C      -1.439000000000000     -7.231000000000000      0.007000000000000
C      -2.013000000000000     -7.481000000000000     -1.404000000000000
O      -0.914000000000000     -7.817000000000000     -2.381000000000000
C      -0.335000000000000     -6.672000000000000     -3.037000000000000
C      -1.264000000000000     -6.292000000000000     -4.237000000000000
O      -0.861000000000000     -4.985000000000000     -4.715000000000000
C      -1.017000000000000     -4.841000000000000     -6.224000000000000
C      -1.099000000000000     -3.312000000000000     -6.508000000000000
O      -2.539000000000000     -2.876000000000000     -6.211000000000000
C      -2.705000000000000     -1.509000000000000     -6.443000000000000
C      -3.381000000000000     -0.917000000000000     -5.183000000000000
H      -5.074000000000000      0.199000000000000     -3.553000000000000
H      -6.447000000000000     -0.371000000000000     -4.407000000000000
H      -4.861000000000000     -2.153000000000000     -2.370000000000000
H      -6.587000000000000     -2.442000000000000     -3.019000000000000
H      -5.936000000000000      0.125000000000000     -0.001000000000000
H      -4.591000000000000     -0.826000000000000     -0.580000000000000
H      -7.030000000000000     -1.853000000000000      0.915000000000000
H      -6.050000000000000     -2.967000000000000     -0.106000000000000
H      -6.221000000000000     -3.074000000000000      3.134000000000000
H      -5.883000000000000     -4.105000000000000      1.658000000000000
H      -4.731000000000000     -4.382000000000000      4.078000000000000
H      -3.767000000000000     -2.969000000000000      3.618000000000000
H      -3.589000000000000     -6.349000000000000      3.873000000000000
H      -4.518000000000000     -6.621000000000000      2.367000000000000
H      -2.271000000000000     -7.858000000000000      2.804000000000000
H      -1.508000000000000     -6.270000000000000      2.357000000000000
H      -0.662000000000000     -7.928000000000000      0.345000000000000
H      -1.065000000000000     -6.200000000000000      0.034000000000000
H      -2.762000000000000     -8.282000000000000     -1.363000000000000
H      -2.575000000000000     -6.598000000000000     -1.732000000000000
H       0.693000000000000     -6.853000000000000     -3.375000000000000
H      -0.269000000000000     -5.831000000000000     -2.336000000000000
H      -2.264000000000000     -6.265000000000000     -3.787000000000000
H      -1.201000000000000     -7.091000000000000     -4.985000000000000
H      -0.119000000000000     -5.108000000000000     -6.793000000000000
H      -1.871000000000000     -5.435000000000000     -6.572000000000000
H      -0.333000000000000     -2.911000000000000     -5.833000000000000
H      -0.834000000000000     -3.056000000000000     -7.541000000000000
H      -3.354000000000000     -1.372000000000000     -7.317000000000000
H      -1.846000000000000     -0.870000000000000     -6.682000000000000
H      -3.440000000000000      0.175000000000000     -5.268000000000000
H      -2.791000000000000     -1.009000000000000     -4.263000000000000
56

O       0.040000000000000     -7.242000000000000     -2.194000000000000
C       0.200000000000000     -6.507000000000000     -3.392000000000000
C      -1.218000000000000     -6.081000000000000     -3.980000000000000
O      -1.347000000000000     -4.624000000000000     -4.089000000000000
C      -2.640000000000000     -4.156000000000000     -4.124000000000000
C      -2.585000000000000     -2.579000000000000     -4.199000000000000
O      -2.515000000000000     -1.982000000000000     -2.890000000000000
C      -3.780000000000000     -1.892000000000000     -2.173000000000000
C      -3.827000000000000     -0.698000000000000     -1.173000000000000
O      -4.741000000000000     -1.133000000000000     -0.183000000000000
C      -4.946000000000000     -0.178000000000000      0.933000000000000
C      -5.697000000000000     -0.851000000000000      2.110000000000000
O      -4.757000000000000     -0.890000000000000      3.198000000000000
C      -5.118000000000000     -1.815000000000000      4.292000000000000
C      -4.579000000000000     -3.207000000000000      4.092000000000000
O      -3.172000000000000     -3.201000000000000      4.204000000000000
C      -2.550000000000000     -4.472000000000000      4.079000000000000
C      -1.014000000000000     -4.429000000000000      3.615000000000000
O      -0.400000000000000     -5.759000000000000      3.887000000000000
C      -0.453000000000000     -6.654000000000000      2.731000000000000
C       0.848000000000000     -6.690000000000000      1.980000000000000
O       0.611000000000000     -7.348000000000000      0.726000000000000
C       1.560000000000000     -6.931000000000000     -0.328000000000000
C       1.306000000000000     -7.708000000000000     -1.675000000000000
H       0.698000000000000     -5.547000000000000     -3.208000000000000
H       0.726000000000000     -7.009000000000000     -4.213000000000000
H      -1.957000000000000     -6.478000000000000     -3.274000000000000
H      -1.409000000000000     -6.503000000000000     -4.974000000000000
H      -3.149000000000000     -4.398000000000000     -3.183000000000000
H      -3.193000000000000     -4.461000000000000     -5.021000000000000
H      -1.663000000000000     -2.241000000000000     -4.688000000000000
H      -3.373000000000000     -2.136000000000000     -4.820000000000000
H      -4.580000000000000     -1.747000000000000     -2.910000000000000
H      -3.966000000000000     -2.829000000000000     -1.633000000000000
H      -4.211000000000000      0.164000000000000     -1.732000000000000
H      -2.832000000000000     -0.554000000000000     -0.734000000000000
H      -3.989000000000000      0.209000000000000      1.304000000000000
H      -5.530000000000000      0.692000000000000      0.607000000000000
H      -6.023000000000000     -1.882000000000000      1.925000000000000
H      -6.555000000000000     -0.208000000000000      2.341000000000000
H      -6.210000000000000     -1.794000000000000      4.399000000000000
H      -4.755000000000000     -1.515000000000000      5.282000000000000
H      -4.993000000000000     -3.785000000000000      4.927000000000000
H      -4.998000000000000     -3.624000000000000      3.168000000000000
H      -3.065000000000000     -5.141000000000000      3.380000000000000
H      -2.554000000000000     -4.942000000000000      5.070000000000000
H      -0.415000000000000     -3.768000000000000      4.254000000000000
H      -1.070000000000000     -4.191000000000000      2.546000000000000
H      -0.681000000000000     -7.650000000000000      3.131000000000000
H      -1.340000000000000     -6.394000000000000      2.141000000000000
H       1.161000000000000     -5.642000000000000      1.893000000000000
H       1.595000000000000     -7.175000000000000      2.620000000000000
H       2.622000000000000     -6.916000000000000     -0.051000000000000
H       1.232000000000000     -5.901000000000000     -0.511000000000000
H       1.291000000000000     -8.784000000000001     -1.462000000000000
H       2.119000000000000     -7.498000000000000     -2.380000000000000
56

O       5.067000000000000     -1.130000000000000      1.245000000000000
C       5.395000000000000     -0.994000000000000     -0.153000000000000
C       4.244000000000000     -1.736000000000000     -0.947000000000000
O       4.198000000000000     -1.079000000000000     -2.260000000000000
C       2.906000000000000     -0.538000000000000     -2.634000000000000
C       2.793000000000000     -0.576000000000000     -4.134000000000000
O       1.447000000000000     -0.311000000000000     -4.470000000000000
C       1.186000000000000      1.065000000000000     -4.701000000000000
C      -0.326000000000000      1.329000000000000     -4.540000000000000
O      -0.780000000000000      2.475000000000000     -3.846000000000000
C      -2.145000000000000      2.403000000000000     -3.404000000000000
C      -2.372000000000000      3.554000000000000     -2.358000000000000
O      -2.223000000000000      2.989000000000000     -1.045000000000000
C      -2.305000000000000      3.990000000000000     -0.033000000000000
C      -1.557000000000000      3.506000000000000      1.295000000000000
O      -0.784000000000000      4.612000000000000      1.687000000000000
C       0.054000000000000      4.514000000000000      2.916000000000000
C       1.513000000000000      4.391000000000000      2.468000000000000
O       2.193000000000000      4.108000000000000      3.694000000000000
C       2.710000000000000      2.779000000000000      4.019000000000000
C       4.192000000000000      2.653000000000000      3.527000000000000
O       4.389000000000000      1.399000000000000      2.803000000000000
C       5.655000000000000      1.157000000000000      2.156000000000000
C       6.008000000000000     -0.364000000000000      2.068000000000000
H       5.440000000000000      0.062000000000000     -0.446000000000000
H       6.390000000000000     -1.444000000000000     -0.264000000000000
H       3.297000000000000     -1.639000000000000     -0.401000000000000
H       4.383000000000000     -2.812000000000000     -1.109000000000000
H       2.747000000000000      0.433000000000000     -2.150000000000000
H       2.166000000000000     -1.204000000000000     -2.171000000000000
H       3.516000000000000      0.114000000000000     -4.586000000000000
H       3.113000000000000     -1.576000000000000     -4.452000000000000
H       1.771000000000000      1.657000000000000     -3.986000000000000
H       1.412000000000000      1.333000000000000     -5.740000000000000
H      -0.702000000000000      0.461000000000000     -3.986000000000000
H      -0.770000000000000      1.287000000000000     -5.542000000000000
H      -2.761000000000000      2.517000000000000     -4.304000000000000
H      -2.344000000000000      1.411000000000000     -2.980000000000000
H      -3.428000000000000      3.789000000000000     -2.544000000000000
H      -1.730000000000000      4.424000000000000     -2.544000000000000
H      -3.345000000000000      4.273000000000000      0.168000000000000
H      -1.820000000000000      4.876000000000000     -0.461000000000000
H      -2.318000000000000      3.346000000000000      2.068000000000000
H      -0.939000000000000      2.607000000000000      1.176000000000000
H      -0.148000000000000      3.602000000000000      3.491000000000000
H      -0.197000000000000      5.344000000000000      3.589000000000000
H       1.819000000000000      5.339000000000000      2.009000000000000
H       1.584000000000000      3.576000000000000      1.736000000000000
H       2.655000000000000      2.570000000000000      5.095000000000000
H       2.078000000000000      1.981000000000000      3.611000000000000
H       4.429000000000000      3.398000000000000      2.757000000000000
H       4.915000000000000      2.758000000000000      4.345000000000000
H       6.463000000000000      1.722000000000000      2.637000000000000
H       5.619000000000000      1.628000000000000      1.166000000000000
H       6.078000000000000     -0.798000000000000      3.073000000000000
H       7.019000000000000     -0.394000000000000      1.643000000000000
56

O      -1.449000000000000     -4.047000000000000     -0.637000000000000
C      -1.355000000000000     -4.684000000000000     -1.910000000000000
C      -1.210000000000000     -3.621000000000000     -2.968000000000000
O      -2.595000000000000     -3.198000000000000     -3.266000000000000
C      -2.714000000000000     -2.312000000000000     -4.417000000000000
C      -2.833000000000000     -0.884000000000000     -3.829000000000000
O      -4.144000000000000     -0.843000000000000     -3.334000000000000
C      -4.308000000000000      0.311000000000000     -2.495000000000000
C      -5.630000000000000      0.125000000000000     -1.753000000000000
O      -5.886000000000000      1.377000000000000     -1.063000000000000
C      -5.467000000000000      1.380000000000000      0.317000000000000
C      -6.614000000000000      0.952000000000000      1.247000000000000
O      -6.145000000000000      0.710000000000000      2.550000000000000
C      -7.061000000000000      1.052000000000000      3.641000000000000
C      -7.435000000000000     -0.307000000000000      4.366000000000000
O      -6.118000000000000     -1.011000000000000      4.730000000000000
C      -6.341000000000000     -2.352000000000000      5.281000000000000
C      -4.962000000000000     -3.115000000000000      5.339000000000000
O      -5.163000000000000     -4.511000000000000      4.947000000000000
C      -4.716000000000000     -4.870000000000000      3.574000000000000
C      -3.360000000000000     -5.445000000000000      3.649000000000000
O      -2.876000000000000     -5.824000000000000      2.348000000000000
C      -2.698000000000000     -4.852000000000000      1.300000000000000
C      -1.350000000000000     -5.027000000000000      0.454000000000000
H      -0.404000000000000     -5.224000000000000     -1.998000000000000
H      -2.291000000000000     -5.233000000000000     -2.067000000000000
H      -0.716000000000000     -4.076000000000000     -3.835000000000000
H      -0.665000000000000     -2.819000000000000     -2.456000000000000
H      -3.498000000000000     -2.567000000000000     -5.141000000000000
H      -1.773000000000000     -2.340000000000000     -4.980000000000000
H      -2.020000000000000     -0.756000000000000     -3.105000000000000
H      -2.725000000000000     -0.172000000000000     -4.656000000000000
H      -3.515000000000000      0.352000000000000     -1.738000000000000
H      -4.232000000000000      1.251000000000000     -3.056000000000000
H      -5.634000000000000     -0.664000000000000     -0.991000000000000
H      -6.408000000000000     -0.196000000000000     -2.455000000000000
H      -4.732000000000000      0.579000000000000      0.466000000000000
H      -5.182000000000000      2.407000000000000      0.575000000000000
H      -7.089000000000000      0.052000000000000      0.837000000000000
H      -7.320000000000000      1.792000000000000      1.230000000000000
H      -7.957000000000000      1.491000000000000      3.184000000000000
H      -6.736000000000000      1.817000000000000      4.357000000000000
H      -8.015000000000001     -0.090000000000000      5.271000000000000
H      -8.045999999999999     -0.991000000000000      3.764000000000000
H      -7.057000000000000     -2.864000000000000      4.627000000000000
H      -6.780000000000000     -2.393000000000000      6.286000000000000
H      -4.608000000000000     -2.983000000000000      6.369000000000000
H      -4.334000000000000     -2.574000000000000      4.620000000000000
H      -5.399000000000000     -5.629000000000000      3.173000000000000
H      -4.638000000000000     -4.013000000000000      2.895000000000000
H      -2.748000000000000     -4.621000000000000      4.037000000000000
H      -3.128000000000000     -6.260000000000000      4.346000000000000
H      -2.618000000000000     -3.829000000000000      1.687000000000000
H      -3.584000000000000     -4.687000000000000      0.675000000000000
H      -1.448000000000000     -6.065000000000000      0.113000000000000
H      -0.418000000000000     -4.952000000000000      1.029000000000000
56

O       2.796000000000000     -2.975000000000000     -1.995000000000000
C       3.773000000000000     -2.023000000000000     -2.496000000000000
C       3.330000000000000     -1.299000000000000     -3.844000000000000
O       2.378000000000000     -0.274000000000000     -3.742000000000000
C       1.420000000000000     -0.285000000000000     -4.832000000000000
C      -0.011000000000000     -0.033000000000000     -4.319000000000000
O      -0.087000000000000      1.060000000000000     -3.375000000000000
C      -1.346000000000000      1.603000000000000     -2.945000000000000
C      -1.652000000000000      1.192000000000000     -1.511000000000000
O      -2.716000000000000      2.045000000000000     -1.054000000000000
C      -3.336000000000000      1.430000000000000      0.115000000000000
C      -2.496000000000000      1.670000000000000      1.409000000000000
O      -3.329000000000000      1.359000000000000      2.507000000000000
C      -2.723000000000000      1.522000000000000      3.764000000000000
C      -2.913000000000000      0.148000000000000      4.496000000000000
O      -1.555000000000000     -0.519000000000000      4.601000000000000
C      -1.755000000000000     -1.822000000000000      5.141000000000000
C      -0.558000000000000     -2.756000000000000      4.803000000000000
O      -0.443000000000000     -2.981000000000000      3.413000000000000
C       0.406000000000000     -4.066000000000000      2.957000000000000
C       1.608000000000000     -3.476000000000000      2.357000000000000
O       2.289000000000000     -4.334000000000000      1.429000000000000
C       2.088000000000000     -4.237000000000000      0.019000000000000
C       2.906000000000000     -3.061000000000000     -0.583000000000000
H       3.940000000000000     -1.258000000000000     -1.727000000000000
H       4.728000000000000     -2.558000000000000     -2.573000000000000
H       2.951000000000000     -2.099000000000000     -4.492000000000000
H       4.242000000000000     -0.896000000000000     -4.300000000000000
H       1.398000000000000     -1.200000000000000     -5.437000000000000
H       1.659000000000000      0.545000000000000     -5.508000000000000
H      -0.648000000000000      0.195000000000000     -5.182000000000000
H      -0.369000000000000     -0.935000000000000     -3.807000000000000
H      -1.407000000000000      2.698000000000000     -2.981000000000000
H      -2.168000000000000      1.161000000000000     -3.522000000000000
H      -0.732000000000000      1.243000000000000     -0.914000000000000
H      -1.893000000000000      0.123000000000000     -1.572000000000000
H      -4.362000000000000      1.791000000000000      0.262000000000000
H      -3.342000000000000      0.349000000000000     -0.068000000000000
H      -2.154000000000000      2.711000000000000      1.473000000000000
H      -1.592000000000000      1.057000000000000      1.306000000000000
H      -3.170000000000000      2.323000000000000      4.365000000000000
H      -1.660000000000000      1.753000000000000      3.620000000000000
H      -3.319000000000000      0.476000000000000      5.461000000000000
H      -3.663000000000000     -0.428000000000000      3.940000000000000
H      -2.670000000000000     -2.309000000000000      4.784000000000000
H      -1.878000000000000     -1.815000000000000      6.231000000000000
H      -0.794000000000000     -3.723000000000000      5.264000000000000
H       0.354000000000000     -2.352000000000000      5.259000000000000
H       0.691000000000000     -4.667000000000000      3.829000000000000
H      -0.196000000000000     -4.661000000000000      2.259000000000000
H       1.374000000000000     -2.568000000000000      1.788000000000000
H       2.303000000000000     -3.164000000000000      3.146000000000000
H       1.050000000000000     -4.084000000000000     -0.301000000000000
H       2.363000000000000     -5.169000000000000     -0.490000000000000
H       3.935000000000000     -3.400000000000000     -0.408000000000000
H       2.613000000000000     -2.085000000000000     -0.178000000000000
56

O       2.350000000000000      3.391000000000000     -4.281000000000000
C       1.823000000000000      4.088000000000000     -5.472000000000000
C       0.665000000000000      5.050000000000000     -5.071000000000000
O      -0.237000000000000      4.418000000000000     -4.217000000000000
C      -1.199000000000000      5.326000000000000     -3.621000000000000
C      -2.278000000000000      4.680000000000000     -2.593000000000000
O      -1.554000000000000      4.166000000000000     -1.474000000000000
C      -1.421000000000000      5.156000000000000     -0.475000000000000
C      -1.271000000000000      4.529000000000000      0.922000000000000
O      -0.858000000000000      5.537000000000000      1.863000000000000
C       0.550000000000000      6.012000000000000      2.035000000000000
C       1.230000000000000      5.033000000000000      3.067000000000000
O       2.641000000000000      5.519000000000000      3.084000000000000
C       3.431000000000000      4.767000000000000      3.999000000000000
C       4.947000000000000      5.027000000000000      3.772000000000000
O       5.428000000000000      4.507000000000000      2.549000000000000
C       6.866000000000000      4.309000000000000      2.549000000000000
C       7.286000000000000      4.135000000000000      1.032000000000000
O       6.571000000000000      3.070000000000000      0.246000000000000
C       6.538000000000000      3.225000000000000     -1.189000000000000
C       5.643000000000000      2.074000000000000     -1.756000000000000
O       5.585000000000000      2.149000000000000     -3.224000000000000
C       4.744000000000000      3.172000000000000     -3.822000000000000
C       3.499000000000000      2.544000000000000     -4.563000000000000
H       2.548000000000000      4.593000000000000     -6.122000000000000
H       1.488000000000000      3.409000000000000     -6.266000000000000
H       0.211000000000000      5.464000000000000     -5.980000000000000
H       1.168000000000000      5.897000000000000     -4.588000000000000
H      -1.869000000000000      5.744000000000000     -4.382000000000000
H      -0.683000000000000      6.139000000000000     -3.094000000000000
H      -3.094000000000000      5.334000000000000     -2.263000000000000
H      -2.813000000000000      3.846000000000000     -3.063000000000000
H      -0.622000000000000      5.861000000000000     -0.734000000000000
H      -2.279000000000000      5.836000000000000     -0.399000000000000
H      -0.448000000000000      3.813000000000000      0.809000000000000
H      -2.217000000000000      4.088000000000000      1.261000000000000
H       1.064000000000000      5.905000000000000      1.071000000000000
H       0.537000000000000      7.044000000000000      2.407000000000000
H       1.221000000000000      4.008000000000000      2.678000000000000
H       0.676000000000000      5.063000000000000      4.014000000000000
H       3.084000000000000      3.739000000000000      3.836000000000000
H       3.213000000000000      5.050000000000000      5.037000000000000
H       5.060000000000000      6.119000000000000      3.767000000000000
H       5.455000000000000      4.712000000000000      4.691000000000000
H       7.241000000000000      3.467000000000000      3.143000000000000
H       7.421000000000000      5.161000000000000      2.962000000000000
H       8.365000000000000      3.938000000000000      0.998000000000000
H       7.103000000000000      5.071000000000000      0.490000000000000
H       6.078000000000000      4.196000000000000     -1.411000000000000
H       7.565000000000000      3.129000000000000     -1.561000000000000
H       6.147000000000000      1.158000000000000     -1.423000000000000
H       4.602000000000000      1.978000000000000     -1.424000000000000
H       5.331000000000000      3.839000000000000     -4.467000000000000
H       4.305000000000000      3.851000000000000     -3.081000000000000
H       3.342000000000000      1.520000000000000     -4.202000000000000
H       3.724000000000000      2.433000000000000     -5.630000000000000
56

O       1.998000000000000     -3.571000000000000     -2.833000000000000
C       1.089000000000000     -4.695000000000000     -2.980000000000000
C      -0.414000000000000     -4.398000000000000     -2.699000000000000
O      -0.833000000000000     -3.383000000000000     -3.704000000000000
C      -2.290000000000000     -3.126000000000000     -3.600000000000000
C      -2.622000000000000     -1.929000000000000     -4.450000000000000
O      -1.875000000000000     -0.690000000000000     -4.227000000000000
C      -2.643000000000000      0.268000000000000     -3.453000000000000
C      -1.858000000000000      1.558000000000000     -3.238000000000000
O      -2.672000000000000      2.515000000000000     -2.473000000000000
C      -2.224000000000000      2.818000000000000     -1.048000000000000
C      -1.148000000000000      3.964000000000000     -1.104000000000000
O      -0.165000000000000      3.556000000000000     -0.119000000000000
C      -0.522000000000000      3.531000000000000      1.283000000000000
C       0.723000000000000      3.744000000000000      2.187000000000000
O       1.551000000000000      2.590000000000000      2.283000000000000
C       2.970000000000000      2.850000000000000      2.586000000000000
C       3.916000000000000      2.020000000000000      1.648000000000000
O       3.490000000000000      0.662000000000000      1.695000000000000
C       4.265000000000000     -0.358000000000000      0.985000000000000
C       3.417000000000000     -1.683000000000000      1.035000000000000
O       3.958000000000000     -2.698000000000000      0.070000000000000
C       3.474000000000000     -2.505000000000000     -1.295000000000000
C       2.246000000000000     -3.253000000000000     -1.442000000000000
H       1.240000000000000     -5.156000000000000     -3.964000000000000
H       1.455000000000000     -5.461000000000000     -2.286000000000000
H      -0.540000000000000     -4.088000000000000     -1.654000000000000
H      -0.911000000000000     -5.371000000000000     -2.793000000000000
H      -2.571000000000000     -2.969000000000000     -2.551000000000000
H      -2.869000000000000     -3.976000000000000     -3.981000000000000
H      -2.400000000000000     -2.212000000000000     -5.487000000000000
H      -3.684000000000000     -1.654000000000000     -4.415000000000000
H      -3.465000000000000      0.569000000000000     -4.115000000000000
H      -2.953000000000000     -0.239000000000000     -2.530000000000000
H      -1.629000000000000      1.965000000000000     -4.231000000000000
H      -0.939000000000000      1.316000000000000     -2.690000000000000
H      -3.138000000000000      3.014000000000000     -0.475000000000000
H      -1.809000000000000      1.886000000000000     -0.645000000000000
H      -1.616000000000000      4.942000000000000     -0.937000000000000
H      -0.694000000000000      3.964000000000000     -2.103000000000000
H      -0.935000000000000      2.545000000000000      1.527000000000000
H      -1.172000000000000      4.349000000000000      1.616000000000000
H       1.218000000000000      4.687000000000000      1.924000000000000
H       0.276000000000000      3.957000000000000      3.166000000000000
H       3.146000000000000      2.543000000000000      3.624000000000000
H       3.158000000000000      3.926000000000000      2.482000000000000
H       4.935000000000000      2.184000000000000      2.018000000000000
H       4.016000000000000      2.409000000000000      0.627000000000000
H       4.423000000000000     -0.032000000000000     -0.050000000000000
H       5.178000000000000     -0.489000000000000      1.578000000000000
H       3.503000000000000     -2.101000000000000      2.046000000000000
H       2.366000000000000     -1.502000000000000      0.777000000000000
H       4.203000000000000     -2.947000000000000     -1.985000000000000
H       3.205000000000000     -1.467000000000000     -1.525000000000000
H       1.390000000000000     -2.698000000000000     -1.038000000000000
H       2.290000000000000     -4.157000000000000     -0.822000000000000
56

O       4.472000000000000     -3.357000000000000     -0.565000000000000
C       4.721000000000000     -2.651000000000000     -1.844000000000000
C       3.903000000000000     -3.460000000000000     -2.849000000000000
O       3.217000000000000     -2.503000000000000     -3.695000000000000
C       2.338000000000000     -3.145000000000000     -4.607000000000000
C       0.862000000000000     -3.291000000000000     -4.041000000000000
O       0.205000000000000     -2.052000000000000     -3.752000000000000
C      -1.075000000000000     -2.252000000000000     -3.060000000000000
C      -1.769000000000000     -0.869000000000000     -2.836000000000000
O      -2.888000000000000     -0.980000000000000     -1.903000000000000
C      -2.447000000000000     -0.787000000000000     -0.530000000000000
C      -2.886000000000000      0.557000000000000     -0.043000000000000
O      -2.033000000000000      1.067000000000000      1.081000000000000
C      -2.257000000000000      0.399000000000000      2.388000000000000
C      -1.440000000000000      1.010000000000000      3.501000000000000
O      -0.933000000000000      0.023000000000000      4.461000000000000
C      -0.013000000000000      0.692000000000000      5.403000000000000
C       1.511000000000000      0.658000000000000      4.890000000000000
O       1.941000000000000     -0.640000000000000      4.703000000000000
C       3.307000000000000     -0.786000000000000      4.203000000000000
C       3.739000000000000     -2.256000000000000      4.180000000000000
O       4.649000000000000     -2.483000000000000      3.049000000000000
C       3.983000000000000     -2.863000000000000      1.792000000000000
C       4.989000000000000     -2.682000000000000      0.649000000000000
H       4.342000000000000     -1.628000000000000     -1.734000000000000
H       5.801000000000000     -2.666000000000000     -2.039000000000000
H       3.240000000000000     -4.105000000000000     -2.259000000000000
H       4.574000000000000     -4.065000000000000     -3.470000000000000
H       2.719000000000000     -4.123000000000000     -4.927000000000000
H       2.200000000000000     -2.590000000000000     -5.543000000000000
H       0.207000000000000     -3.876000000000000     -4.699000000000000
H       0.959000000000000     -3.843000000000000     -3.099000000000000
H      -1.717000000000000     -2.948000000000000     -3.614000000000000
H      -0.957000000000000     -2.667000000000000     -2.052000000000000
H      -2.046000000000000     -0.544000000000000     -3.847000000000000
H      -1.098000000000000     -0.059000000000000     -2.523000000000000
H      -2.948000000000000     -1.489000000000000      0.148000000000000
H      -1.360000000000000     -0.882000000000000     -0.416000000000000
H      -3.918000000000000      0.435000000000000      0.307000000000000
H      -2.894000000000000      1.255000000000000     -0.889000000000000
H      -1.871000000000000     -0.613000000000000      2.214000000000000
H      -3.311000000000000      0.379000000000000      2.692000000000000
H      -0.652000000000000      1.644000000000000      3.076000000000000
H      -2.214000000000000      1.609000000000000      3.998000000000000
H      -0.051000000000000      0.098000000000000      6.325000000000000
H      -0.343000000000000      1.709000000000000      5.650000000000000
H       2.094000000000000      1.197000000000000      5.647000000000000
H       1.635000000000000      1.210000000000000      3.950000000000000
H       3.291000000000000     -0.444000000000000      3.161000000000000
H       3.982000000000000     -0.124000000000000      4.761000000000000
H       4.235000000000000     -2.463000000000000      5.136000000000000
H       2.843000000000000     -2.888000000000000      4.168000000000000
H       3.052000000000000     -2.300000000000000      1.651000000000000
H       3.622000000000000     -3.888000000000000      1.940000000000000
H       5.961000000000000     -3.131000000000000      0.887000000000000
H       5.116000000000000     -1.602000000000000      0.503000000000000
56

O       9.199999999999999      1.276000000000000     -4.182000000000000
C       9.754000000000000      2.588000000000000     -4.639000000000000
C       9.048999999999999      3.186000000000000     -5.887000000000000
O       7.743000000000000      3.837000000000000     -5.514000000000000
C       7.523000000000000      5.274000000000000     -5.674000000000000
C       6.073000000000000      5.732000000000000     -5.231000000000000
O       5.892000000000000      5.408000000000000     -3.796000000000000
C       4.571000000000000      5.633000000000000     -3.224000000000000
C       4.778000000000000      6.216000000000000     -1.794000000000000
O       3.568000000000000      6.101000000000000     -1.021000000000000
C       3.458000000000000      5.008000000000000     -0.085000000000000
C       4.039000000000000      5.383000000000000      1.245000000000000
O       3.693000000000000      4.310000000000000      2.215000000000000
C       4.544000000000000      4.149000000000000      3.324000000000000
C       4.157000000000000      2.762000000000000      3.997000000000000
O       4.896000000000000      1.641000000000000      3.290000000000000
C       6.249000000000000      1.502000000000000      3.687000000000000
C       6.820000000000000      0.179000000000000      3.130000000000000
O       7.139000000000000      0.468000000000000      1.748000000000000
C       8.500999999999999      0.417000000000000      1.255000000000000
C       8.314000000000000      0.122000000000000     -0.214000000000000
O       9.654000000000000      0.030000000000000     -0.825000000000000
C       9.936000000000000      1.063000000000000     -1.814000000000000
C       9.885999999999999      0.471000000000000     -3.219000000000000
H       9.746000000000000      3.296000000000000     -3.802000000000000
H      10.821999999999999      2.445000000000000     -4.845000000000000
H       8.930000000000000      2.427000000000000     -6.670000000000000
H       9.675000000000001      3.958000000000000     -6.352000000000000
H       7.923000000000000      5.613000000000000     -6.638000000000000
H       8.116000000000000      5.826000000000000     -4.934000000000000
H       5.966000000000000      6.810000000000000     -5.401000000000000
H       5.289000000000000      5.208000000000000     -5.791000000000000
H       4.051000000000000      6.455000000000000     -3.731000000000000
H       4.073000000000000      4.656000000000000     -3.251000000000000
H       5.117000000000000      7.259000000000000     -1.828000000000000
H       5.519000000000000      5.665000000000000     -1.202000000000000
H       2.369000000000000      4.922000000000000      0.017000000000000
H       3.903000000000000      4.080000000000000     -0.465000000000000
H       3.509000000000000      6.280000000000000      1.589000000000000
H       5.118000000000000      5.578000000000000      1.212000000000000
H       4.318000000000000      4.966000000000000      4.021000000000000
H       5.598000000000000      4.188000000000000      3.019000000000000
H       4.440000000000000      2.729000000000000      5.056000000000000
H       3.095000000000000      2.564000000000000      3.809000000000000
H       6.318000000000000      1.568000000000000      4.780000000000000
H       6.907000000000000      2.257000000000000      3.240000000000000
H       6.035000000000000     -0.587000000000000      3.122000000000000
H       7.689000000000000     -0.202000000000000      3.681000000000000
H       8.970000000000001      1.386000000000000      1.468000000000000
H       8.994999999999999     -0.384000000000000      1.818000000000000
H       7.709000000000000     -0.788000000000000     -0.304000000000000
H       7.706000000000000      0.897000000000000     -0.696000000000000
H      10.932000000000000      1.516000000000000     -1.730000000000000
H       9.228000000000000      1.899000000000000     -1.757000000000000
H       9.398999999999999     -0.512000000000000     -3.241000000000000
H      10.925000000000001      0.305000000000000     -3.527000000000000
56

O       4.777000000000000     -2.735000000000000     -6.220000000000000
C       5.623000000000000     -1.648000000000000     -5.993000000000000
C       5.057000000000000     -0.429000000000000     -6.703000000000000
O       6.166000000000000      0.426000000000000     -6.947000000000000
C       6.109000000000000      1.716000000000000     -6.362000000000000
C       7.554000000000000      2.308000000000000     -6.354000000000000
O       7.592000000000000      3.417000000000000     -5.414000000000000
C       8.935000000000000      3.490000000000000     -4.904000000000000
C       9.010999999999999      4.521000000000000     -3.797000000000000
O       8.563000000000001      3.949000000000000     -2.558000000000000
C       9.233000000000001      4.364000000000000     -1.338000000000000
C       8.706000000000000      3.575000000000000     -0.186000000000000
O       9.097000000000000      2.172000000000000     -0.341000000000000
C       8.317000000000000      1.296000000000000      0.526000000000000
C       8.662000000000001     -0.183000000000000      0.361000000000000
O       7.427000000000000     -1.035000000000000      0.496000000000000
C       7.572000000000000     -2.454000000000000      0.540000000000000
C       6.271000000000000     -3.204000000000000      0.319000000000000
O       6.444000000000000     -4.193000000000000     -0.680000000000000
C       5.256000000000000     -5.056000000000000     -0.949000000000000
C       5.358000000000000     -5.684000000000000     -2.313000000000000
O       4.573000000000000     -4.913000000000000     -3.231000000000000
C       5.151000000000000     -4.430000000000000     -4.383000000000000
C       4.227000000000000     -3.296000000000000     -5.044000000000000
H       5.633000000000000     -1.308000000000000     -4.950000000000000
H       6.630000000000000     -1.863000000000000     -6.373000000000000
H       4.284000000000000     -0.010000000000000     -6.047000000000000
H       4.584000000000000     -0.569000000000000     -7.683000000000000
H       6.003000000000000      1.509000000000000     -5.290000000000000
H       5.367000000000000      2.340000000000000     -6.876000000000000
H       8.313000000000001      1.530000000000000     -6.199000000000000
H       7.790000000000000      2.656000000000000     -7.367000000000000
H       9.324999999999999      2.477000000000000     -4.749000000000000
H       9.545999999999999      3.927000000000000     -5.703000000000000
H       8.398999999999999      5.375000000000000     -4.112000000000000
H      10.006000000000000      4.961000000000000     -3.660000000000000
H      10.311999999999999      4.171000000000000     -1.386000000000000
H       9.016999999999999      5.439000000000000     -1.354000000000000
H       7.610000000000000      3.608000000000000     -0.231000000000000
H       9.071000000000000      3.942000000000000      0.781000000000000
H       7.231000000000000      1.415000000000000      0.435000000000000
H       8.529000000000000      1.551000000000000      1.572000000000000
H       9.101000000000001     -0.479000000000000     -0.600000000000000
H       9.342000000000001     -0.467000000000000      1.173000000000000
H       8.129000000000000     -2.796000000000000      1.421000000000000
H       8.272000000000000     -2.673000000000000     -0.276000000000000
H       5.522000000000000     -2.467000000000000      0.004000000000000
H       5.865000000000000     -3.649000000000000      1.236000000000000
H       5.251000000000000     -5.862000000000000     -0.205000000000000
H       4.325000000000000     -4.475000000000000     -0.932000000000000
H       6.401000000000000     -5.806000000000000     -2.632000000000000
H       4.881000000000000     -6.667000000000000     -2.216000000000000
H       5.301000000000000     -5.209000000000000     -5.141000000000000
H       6.186000000000000     -4.123000000000000     -4.188000000000000
H       3.933000000000000     -2.519000000000000     -4.328000000000000
H       3.319000000000000     -3.851000000000000     -5.311000000000000
56

O       9.339000000000000     -0.831000000000000     -5.630000000000000
C       8.914999999999999      0.494000000000000     -5.592000000000000
C       7.388000000000000      0.493000000000000     -5.909000000000000
O       7.045000000000000      1.843000000000000     -6.271000000000000
C       6.747000000000000      2.690000000000000     -5.148000000000000
C       6.096000000000000      4.041000000000000     -5.672000000000000
O       6.016000000000000      4.943000000000000     -4.519000000000000
C       7.191000000000000      5.791000000000000     -4.349000000000000
C       6.804000000000000      7.050000000000000     -3.585000000000000
O       6.055000000000000      6.756000000000000     -2.356000000000000
C       6.747000000000000      7.247000000000000     -1.148000000000000
C       6.207000000000000      6.536000000000000      0.087000000000000
O       7.094000000000000      5.442000000000000      0.397000000000000
C       6.645000000000000      4.691000000000000      1.586000000000000
C       7.667000000000000      3.574000000000000      2.007000000000000
O       7.696000000000000      2.567000000000000      1.068000000000000
C       8.943000000000000      1.831000000000000      1.049000000000000
C       8.603000000000000      0.322000000000000      0.717000000000000
O       9.824000000000000     -0.535000000000000      0.804000000000000
C      10.683999999999999     -0.762000000000000     -0.431000000000000
C      10.121000000000000     -1.886000000000000     -1.270000000000000
O      10.914999999999999     -2.014000000000000     -2.398000000000000
C      10.570000000000000     -1.055000000000000     -3.500000000000000
C       9.439000000000000     -1.607000000000000     -4.413000000000000
H       9.140000000000001      1.046000000000000     -4.671000000000000
H       9.426000000000000      1.042000000000000     -6.394000000000000
H       6.811000000000000      0.254000000000000     -5.007000000000000
H       7.220000000000000     -0.244000000000000     -6.704000000000000
H       7.686000000000000      2.890000000000000     -4.617000000000000
H       6.053000000000000      2.252000000000000     -4.420000000000000
H       6.497000000000000      4.606000000000000     -6.523000000000000
H       5.095000000000000      3.736000000000000     -6.002000000000000
H       8.022000000000000      5.287000000000000     -3.840000000000000
H       7.631000000000000      6.106000000000000     -5.304000000000000
H       6.153000000000000      7.573000000000000     -4.296000000000000
H       7.691000000000000      7.674000000000000     -3.414000000000000
H       7.840000000000000      7.191000000000000     -1.222000000000000
H       6.490000000000000      8.300000000000001     -0.981000000000000
H       5.217000000000000      6.116000000000000     -0.133000000000000
H       6.062000000000000      7.291000000000000      0.870000000000000
H       5.638000000000000      4.324000000000000      1.350000000000000
H       6.608000000000000      5.318000000000000      2.485000000000000
H       8.651999999999999      4.052000000000000      2.083000000000000
H       7.324000000000000      3.171000000000000      2.968000000000000
H       9.435000000000000      1.761000000000000      2.027000000000000
H       9.598000000000001      2.133000000000000      0.222000000000000
H       8.138999999999999      0.193000000000000     -0.269000000000000
H       7.744000000000000      0.024000000000000      1.331000000000000
H      10.648000000000000      0.177000000000000     -0.998000000000000
H      11.669000000000000     -1.133000000000000     -0.122000000000000
H      10.047000000000001     -2.831000000000000     -0.718000000000000
H       9.079000000000001     -1.617000000000000     -1.482000000000000
H      11.404000000000000     -0.737000000000000     -4.137000000000000
H      10.199000000000000     -0.123000000000000     -3.056000000000000
H       8.494999999999999     -1.592000000000000     -3.855000000000000
H       9.669000000000000     -2.667000000000000     -4.580000000000000
56

O      10.747000000000000     -4.180000000000000      2.637000000000000
C      11.400000000000000     -3.903000000000000      1.373000000000000
C      10.756000000000000     -4.723000000000000      0.265000000000000
O      11.624000000000001     -4.731000000000000     -0.899000000000000
C      11.041000000000000     -4.013000000000000     -2.058000000000000
C      11.150000000000000     -2.519000000000000     -1.896000000000000
O      10.249000000000001     -1.907000000000000     -2.845000000000000
C      10.480000000000000     -0.470000000000000     -3.090000000000000
C       9.125000000000000      0.189000000000000     -3.373000000000000
O       9.337999999999999      1.583000000000000     -3.419000000000000
C       8.291000000000000      2.414000000000000     -4.020000000000000
C       7.210000000000000      2.789000000000000     -2.991000000000000
O       7.811000000000000      3.472000000000000     -1.832000000000000
C       7.781000000000000      4.983000000000000     -1.665000000000000
C       7.563000000000000      5.396000000000000     -0.139000000000000
O       8.379000000000000      4.515000000000000      0.739000000000000
C       8.212999999999999      4.542000000000000      2.187000000000000
C       9.129000000000000      3.499000000000000      2.841000000000000
O       8.467000000000001      2.222000000000000      2.989000000000000
C       9.369000000000000      1.282000000000000      3.682000000000000
C       8.721000000000000     -0.184000000000000      3.566000000000000
O       9.438000000000001     -1.166000000000000      4.297000000000000
C      10.384000000000000     -1.944000000000000      3.518000000000000
C       9.686000000000000     -3.232000000000000      3.078000000000000
H      11.414000000000000     -2.834000000000000      1.126000000000000
H      12.443000000000000     -4.238000000000000      1.431000000000000
H       9.849000000000000     -4.151000000000000      0.034000000000000
H      10.570000000000000     -5.740000000000000      0.632000000000000
H       9.978000000000000     -4.255000000000000     -2.176000000000000
H      11.505000000000001     -4.335000000000000     -2.999000000000000
H      10.821999999999999     -2.197000000000000     -0.900000000000000
H      12.183999999999999     -2.199000000000000     -2.075000000000000
H      11.074999999999999      0.065000000000000     -2.340000000000000
H      11.048999999999999     -0.459000000000000     -4.028000000000000
H       8.375000000000000      0.045000000000000     -2.586000000000000
H       8.711000000000000     -0.170000000000000     -4.324000000000000
H       8.666000000000000      3.387000000000000     -4.361000000000000
H       7.783000000000000      2.003000000000000     -4.901000000000000
H       6.793000000000000      1.835000000000000     -2.645000000000000
H       6.442000000000000      3.361000000000000     -3.526000000000000
H       6.944000000000000      5.418000000000000     -2.224000000000000
H       8.612000000000000      5.556000000000000     -2.095000000000000
H       7.977000000000000      6.412000000000000     -0.102000000000000
H       6.504000000000000      5.443000000000000      0.144000000000000
H       7.187000000000000      4.419000000000000      2.556000000000000
H       8.539999999999999      5.533000000000000      2.524000000000000
H       9.382999999999999      3.863000000000000      3.844000000000000
H      10.022000000000000      3.332000000000000      2.227000000000000
H      10.329000000000001      1.146000000000000      3.169000000000000
H       9.650000000000000      1.670000000000000      4.668000000000000
H       7.734000000000000     -0.084000000000000      4.033000000000000
H       8.548000000000000     -0.523000000000000      2.537000000000000
H      11.225000000000000     -2.248000000000000      4.153000000000000
H      10.696999999999999     -1.394000000000000      2.622000000000000
H       9.069000000000001     -2.978000000000000      2.206000000000000
H       9.157000000000000     -3.591000000000000      3.969000000000000
56

O      11.746000000000000      3.149000000000000      1.047000000000000
C      11.183999999999999      3.073000000000000     -0.292000000000000
C      10.548999999999999      1.665000000000000     -0.529000000000000
O      11.343000000000000      0.796000000000000     -1.384000000000000
C      11.146000000000001      1.023000000000000     -2.839000000000000
C       9.994000000000000      0.070000000000000     -3.349000000000000
O       8.862000000000000      0.959000000000000     -3.726000000000000
C       8.675000000000001      1.219000000000000     -5.153000000000000
C       7.161000000000000      1.588000000000000     -5.520000000000000
O       6.968000000000000      3.045000000000000     -5.330000000000000
C       5.677000000000000      3.584000000000000     -5.818000000000000
C       5.295000000000000      4.818000000000000     -5.002000000000000
O       4.606000000000000      4.562000000000000     -3.744000000000000
C       4.177000000000000      5.719000000000000     -2.878000000000000
C       5.314000000000000      6.059000000000000     -1.889000000000000
O       4.917000000000000      7.011000000000000     -0.877000000000000
C       5.991000000000000      7.185000000000000      0.117000000000000
C       5.904000000000000      6.131000000000000      1.260000000000000
O       6.528000000000000      6.673000000000000      2.445000000000000
C       8.007000000000000      6.791000000000000      2.461000000000000
C       8.455000000000000      5.553000000000000      3.322000000000000
O       9.884000000000000      5.409000000000000      3.343000000000000
C      10.547000000000001      4.925000000000000      2.175000000000000
C      10.951000000000001      3.434000000000000      2.191000000000000
H      10.329000000000001      3.755000000000000     -0.378000000000000
H      11.920000000000000      3.208000000000000     -1.094000000000000
H       9.571999999999999      1.803000000000000     -1.009000000000000
H      10.429000000000000      1.162000000000000      0.438000000000000
H      12.074000000000000      0.702000000000000     -3.328000000000000
H      10.848000000000001      2.060000000000000     -3.033000000000000
H      10.425000000000001     -0.578000000000000     -4.123000000000000
H       9.728000000000000     -0.507000000000000     -2.456000000000000
H       9.327999999999999      2.030000000000000     -5.499000000000000
H       8.863000000000000      0.343000000000000     -5.785000000000000
H       6.424000000000000      1.081000000000000     -4.886000000000000
H       7.107000000000000      1.325000000000000     -6.584000000000000
H       5.679000000000000      3.986000000000000     -6.838000000000000
H       4.846000000000000      2.873000000000000     -5.734000000000000
H       4.708000000000000      5.471000000000000     -5.660000000000000
H       6.290000000000000      5.277000000000000     -4.945000000000000
H       3.309000000000000      5.404000000000000     -2.285000000000000
H       3.972000000000000      6.568000000000000     -3.541000000000000
H       5.656000000000000      5.160000000000000     -1.362000000000000
H       6.175000000000000      6.434000000000000     -2.456000000000000
H       5.886000000000000      8.169000000000000      0.592000000000000
H       6.910000000000000      7.207000000000000     -0.481000000000000
H       6.445000000000000      5.204000000000000      1.034000000000000
H       4.877000000000000      5.896000000000000      1.563000000000000
H       8.462999999999999      6.770000000000000      1.463000000000000
H       8.369000000000000      7.707000000000000      2.944000000000000
H       8.090999999999999      5.528000000000000      4.356000000000000
H       8.007999999999999      4.646000000000000      2.896000000000000
H      11.522000000000000      5.401000000000000      2.008000000000000
H       9.949000000000000      5.199000000000000      1.297000000000000
H      10.016000000000000      2.865000000000000      2.111000000000000
H      11.426000000000000      3.209000000000000      3.154000000000000
56

O      -0.556000000000000      7.871000000000000      1.315000000000000
C       0.450000000000000      6.816000000000000      1.190000000000000
C       1.777000000000000      7.073000000000000      1.979000000000000
O       2.623000000000000      5.890000000000000      1.857000000000000
C       4.035000000000000      6.224000000000000      2.245000000000000
C       4.853000000000000      5.011000000000000      1.752000000000000
O       5.471000000000000      5.460000000000000      0.512000000000000
C       5.659000000000000      4.382000000000000     -0.459000000000000
C       5.780000000000000      4.972000000000000     -1.897000000000000
O       5.415000000000000      4.035000000000000     -2.924000000000000
C       5.375000000000000      4.488000000000000     -4.298000000000000
C       4.144000000000000      5.424000000000000     -4.589000000000000
O       4.041000000000000      5.791000000000000     -5.955000000000000
C       3.179000000000000      6.929000000000000     -6.214000000000000
C       1.747000000000000      6.428000000000000     -6.335000000000000
O       0.882000000000000      7.602000000000000     -6.112000000000000
C      -0.214000000000000      7.655000000000000     -6.978000000000000
C      -1.368000000000000      8.471000000000000     -6.292000000000000
O      -1.176000000000000      8.462000000000000     -4.900000000000000
C      -2.321000000000000      8.930999999999999     -4.216000000000000
C      -2.074000000000000      8.946999999999999     -2.672000000000000
O      -1.934000000000000      7.643000000000000     -2.101000000000000
C      -2.077000000000000      7.440000000000000     -0.636000000000000
C      -1.052000000000000      8.307000000000000      0.048000000000000
H       0.023000000000000      5.891000000000000      1.596000000000000
H       0.728000000000000      6.760000000000000      0.130000000000000
H       1.586000000000000      7.235000000000000      3.047000000000000
H       2.234000000000000      7.973000000000000      1.549000000000000
H       4.142000000000000      6.155000000000000      3.334000000000000
H       4.458000000000000      7.138000000000000      1.809000000000000
H       5.603000000000000      4.772000000000000      2.516000000000000
H       4.265000000000000      4.093000000000000      1.634000000000000
H       6.649000000000000      3.927000000000000     -0.328000000000000
H       4.794000000000000      3.706000000000000     -0.454000000000000
H       6.813000000000000      5.326000000000000     -1.997000000000000
H       5.128000000000000      5.851000000000000     -1.957000000000000
H       6.303000000000000      4.989000000000000     -4.600000000000000
H       5.276000000000000      3.594000000000000     -4.926000000000000
H       4.143000000000000      6.274000000000000     -3.896000000000000
H       3.287000000000000      4.770000000000000     -4.383000000000000
H       3.492000000000000      7.322000000000000     -7.189000000000000
H       3.415000000000000      7.742000000000000     -5.516000000000000
H       1.635000000000000      5.978000000000000     -7.330000000000000
H       1.514000000000000      5.726000000000000     -5.525000000000000
H      -0.684000000000000      6.704000000000000     -7.256000000000000
H       0.178000000000000      8.166000000000000     -7.866000000000000
H      -2.332000000000000      7.988000000000000     -6.499000000000000
H      -1.497000000000000      9.499000000000001     -6.652000000000000
H      -2.343000000000000      9.976000000000001     -4.550000000000000
H      -3.277000000000000      8.488000000000000     -4.521000000000000
H      -1.140000000000000      9.468999999999999     -2.429000000000000
H      -2.921000000000000      9.417000000000000     -2.158000000000000
H      -2.056000000000000      6.368000000000000     -0.404000000000000
H      -3.114000000000000      7.666000000000000     -0.360000000000000
H      -1.393000000000000      9.337999999999999      0.204000000000000
H      -0.206000000000000      8.410000000000000     -0.643000000000000
56

O      -2.932000000000000      6.748000000000000      4.960000000000000
C      -1.994000000000000      5.584000000000000      4.848000000000000
C      -0.609000000000000      6.040000000000000      5.396000000000000
O       0.332000000000000      4.952000000000000      5.393000000000000
C       1.652000000000000      5.450000000000000      5.744000000000000
C       2.622000000000000      4.901000000000000      4.647000000000000
O       3.023000000000000      5.929000000000000      3.679000000000000
C       4.165000000000000      5.586000000000000      2.834000000000000
C       3.863000000000000      6.148000000000000      1.402000000000000
O       3.029000000000000      5.397000000000000      0.557000000000000
C       2.441000000000000      5.957000000000000     -0.628000000000000
C       1.646000000000000      4.851000000000000     -1.385000000000000
O       1.163000000000000      5.434000000000000     -2.604000000000000
C      -0.223000000000000      5.825000000000000     -2.587000000000000
C      -0.351000000000000      7.376000000000000     -2.848000000000000
O      -1.672000000000000      7.831000000000000     -2.410000000000000
C      -2.763000000000000      7.566000000000000     -3.428000000000000
C      -4.140000000000000      7.873000000000000     -2.773000000000000
O      -4.191000000000000      7.338000000000000     -1.441000000000000
C      -5.238000000000000      7.825000000000000     -0.564000000000000
C      -5.303000000000000      6.933000000000000      0.704000000000000
O      -4.470000000000000      7.613000000000000      1.612000000000000
C      -4.071000000000000      6.804000000000000      2.817000000000000
C      -3.063000000000000      7.571000000000000      3.746000000000000
H      -2.303000000000000      4.793000000000000      5.543000000000000
H      -1.893000000000000      5.242000000000000      3.810000000000000
H      -0.751000000000000      6.578000000000000      6.342000000000000
H      -0.271000000000000      6.863000000000000      4.754000000000000
H       1.799000000000000      5.175000000000000      6.796000000000000
H       1.713000000000000      6.540000000000000      5.635000000000000
H       3.486000000000000      4.490000000000000      5.183000000000000
H       2.208000000000000      3.993000000000000      4.191000000000000
H       5.014000000000000      6.092000000000000      3.310000000000000
H       4.273000000000000      4.498000000000000      2.742000000000000
H       4.821000000000000      6.260000000000000      0.880000000000000
H       3.471000000000000      7.169000000000000      1.488000000000000
H       1.723000000000000      6.766000000000000     -0.444000000000000
H       3.181000000000000      6.493000000000000     -1.234000000000000
H       0.851000000000000      4.400000000000000     -0.779000000000000
H       2.413000000000000      4.123000000000000     -1.678000000000000
H      -0.800000000000000      5.554000000000000     -1.694000000000000
H      -0.728000000000000      5.364000000000000     -3.444000000000000
H       0.463000000000000      7.921000000000000     -2.355000000000000
H      -0.188000000000000      7.531000000000000     -3.922000000000000
H      -2.733000000000000      6.507000000000000     -3.713000000000000
H      -2.521000000000000      7.999000000000000     -4.406000000000000
H      -4.928000000000000      7.472000000000000     -3.421000000000000
H      -4.297000000000000      8.952000000000000     -2.654000000000000
H      -5.049000000000000      8.865000000000000     -0.271000000000000
H      -6.201000000000000      7.725000000000000     -1.081000000000000
H      -6.351000000000000      6.910000000000000      1.030000000000000
H      -4.973000000000000      5.909000000000000      0.491000000000000
H      -3.617000000000000      5.831000000000000      2.593000000000000
H      -5.014000000000000      6.646000000000000      3.355000000000000
H      -3.360000000000000      8.595000000000001      4.004000000000000
H      -2.098000000000000      7.663000000000000      3.233000000000000
56

O      -5.061000000000000      2.955000000000000      5.097000000000000
C      -3.827000000000000      2.269000000000000      5.163000000000000
C      -2.646000000000000      3.188000000000000      5.648000000000000
O      -1.407000000000000      2.512000000000000      5.444000000000000
C      -0.320000000000000      2.889000000000000      6.291000000000000
C       0.464000000000000      4.070000000000000      5.716000000000000
O       0.815000000000000      3.823000000000000      4.362000000000000
C       1.941000000000000      4.557000000000000      3.853000000000000
C       1.606000000000000      5.438000000000000      2.568000000000000
O       1.372000000000000      4.564000000000000      1.488000000000000
C       1.154000000000000      5.275000000000000      0.149000000000000
C       0.644000000000000      4.282000000000000     -0.919000000000000
O      -0.080000000000000      4.848000000000000     -2.038000000000000
C      -1.525000000000000      5.111000000000000     -2.036000000000000
C      -2.281000000000000      3.859000000000000     -2.360000000000000
O      -3.669000000000000      4.096000000000000     -2.058000000000000
C      -4.581000000000000      3.063000000000000     -2.685000000000000
C      -6.046000000000000      3.351000000000000     -2.329000000000000
O      -6.155000000000000      3.287000000000000     -0.917000000000000
C      -7.258000000000000      3.999000000000000     -0.310000000000000
C      -6.837000000000000      4.341000000000000      1.144000000000000
O      -6.558000000000000      3.064000000000000      1.811000000000000
C      -6.627000000000000      2.997000000000000      3.240000000000000
C      -5.392000000000000      3.672000000000000      3.908000000000000
H      -3.905000000000000      1.346000000000000      5.752000000000000
H      -3.585000000000000      2.020000000000000      4.123000000000000
H      -2.867000000000000      3.379000000000000      6.705000000000000
H      -2.625000000000000      4.164000000000000      5.147000000000000
H       0.375000000000000      2.040000000000000      6.303000000000000
H      -0.663000000000000      3.226000000000000      7.277000000000000
H      -0.120000000000000      4.995000000000000      5.789000000000000
H       1.405000000000000      4.195000000000000      6.265000000000000
H       2.495000000000000      5.238000000000000      4.510000000000000
H       2.679000000000000      3.801000000000000      3.559000000000000
H       2.458000000000000      6.041000000000000      2.231000000000000
H       0.756000000000000      6.120000000000000      2.696000000000000
H       0.477000000000000      6.115000000000000      0.350000000000000
H       2.100000000000000      5.692000000000000     -0.218000000000000
H       0.096000000000000      3.580000000000000     -0.278000000000000
H       1.513000000000000      3.750000000000000     -1.325000000000000
H      -1.740000000000000      5.872000000000000     -2.796000000000000
H      -1.784000000000000      5.588000000000000     -1.082000000000000
H      -2.181000000000000      3.587000000000000     -3.418000000000000
H      -1.873000000000000      3.145000000000000     -1.634000000000000
H      -4.328000000000000      2.028000000000000     -2.424000000000000
H      -4.460000000000000      3.087000000000000     -3.775000000000000
H      -6.702000000000000      2.566000000000000     -2.723000000000000
H      -6.277000000000000      4.337000000000000     -2.752000000000000
H      -7.533000000000000      4.924000000000000     -0.833000000000000
H      -8.148999999999999      3.379000000000000     -0.468000000000000
H      -5.994000000000000      5.044000000000000      1.146000000000000
H      -7.686000000000000      4.885000000000000      1.575000000000000
H      -6.681000000000000      1.953000000000000      3.572000000000000
H      -7.463000000000000      3.575000000000000      3.653000000000000
H      -5.642000000000000      4.722000000000000      4.103000000000000
H      -4.491000000000000      3.702000000000000      3.283000000000000
56

O      -3.891000000000000      5.102000000000000     -1.973000000000000
C      -4.114000000000000      3.922000000000000     -1.204000000000000
C      -4.968000000000000      4.259000000000000     -0.067000000000000
O      -5.126000000000000      3.086000000000000      0.823000000000000
C      -6.065000000000000      3.337000000000000      1.866000000000000
C      -5.377000000000000      4.040000000000000      3.084000000000000
O      -4.426000000000000      3.232000000000000      3.751000000000000
C      -3.838000000000000      3.806000000000000      4.973000000000000
C      -2.606000000000000      2.924000000000000      5.381000000000000
O      -1.412000000000000      3.237000000000000      4.547000000000000
C      -0.700000000000000      4.488000000000000      4.778000000000000
C       0.747000000000000      4.303000000000000      4.415000000000000
O       1.414000000000000      5.630000000000000      4.393000000000000
C       1.367000000000000      6.315000000000000      3.150000000000000
C       2.408000000000000      5.761000000000000      2.071000000000000
O       2.558000000000000      6.781000000000000      1.086000000000000
C       3.273000000000000      6.326000000000000     -0.113000000000000
C       3.049000000000000      7.227000000000000     -1.306000000000000
O       1.652000000000000      7.031000000000000     -1.722000000000000
C       1.427000000000000      6.104000000000000     -2.863000000000000
C       0.065000000000000      6.424000000000000     -3.488000000000000
O      -1.019000000000000      6.249000000000000     -2.515000000000000
C      -1.554000000000000      4.876000000000000     -2.647000000000000
C      -3.031000000000000      4.817000000000000     -3.181000000000000
H      -4.482000000000000      3.135000000000000     -1.875000000000000
H      -3.153000000000000      3.648000000000000     -0.751000000000000
H      -5.979000000000000      4.498000000000000     -0.419000000000000
H      -4.524000000000000      5.163000000000000      0.368000000000000
H      -6.529000000000000      2.402000000000000      2.203000000000000
H      -6.860000000000000      4.005000000000000      1.513000000000000
H      -4.982000000000000      5.042000000000000      2.875000000000000
H      -6.189000000000000      4.411000000000000      3.722000000000000
H      -3.518000000000000      4.839000000000000      4.792000000000000
H      -4.623000000000000      3.783000000000000      5.739000000000000
H      -2.866000000000000      1.863000000000000      5.283000000000000
H      -2.309000000000000      3.076000000000000      6.427000000000000
H      -1.164000000000000      5.254000000000000      4.145000000000000
H      -0.773000000000000      4.787000000000000      5.831000000000000
H       0.886000000000000      3.789000000000000      3.456000000000000
H       1.204000000000000      3.708000000000000      5.215000000000000
H       1.469000000000000      7.363000000000000      3.458000000000000
H       0.383000000000000      6.203000000000000      2.679000000000000
H       3.373000000000000      5.565000000000000      2.555000000000000
H       1.911000000000000      4.886000000000000      1.634000000000000
H       2.917000000000000      5.310000000000000     -0.322000000000000
H       4.358000000000000      6.282000000000000      0.044000000000000
H       3.659000000000000      6.969000000000000     -2.180000000000000
H       3.122000000000000      8.254000000000000     -0.928000000000000
H       2.200000000000000      6.227000000000000     -3.632000000000000
H       1.429000000000000      5.066000000000000     -2.508000000000000
H      -0.002000000000000      7.460000000000000     -3.840000000000000
H      -0.016000000000000      5.901000000000000     -4.449000000000000
H      -1.430000000000000      4.340000000000000     -1.698000000000000
H      -0.980000000000000      4.247000000000000     -3.339000000000000
H      -3.272000000000000      3.791000000000000     -3.486000000000000
H      -3.175000000000000      5.588000000000000     -3.947000000000000
56

O      -3.980000000000000      5.063000000000000     -2.318000000000000
C      -4.311000000000000      3.720000000000000     -2.005000000000000
C      -5.636000000000000      3.729000000000000     -1.214000000000000
O      -5.706000000000000      2.729000000000000     -0.188000000000000
C      -6.867000000000000      2.857000000000000      0.574000000000000
C      -6.754000000000000      1.900000000000000      1.837000000000000
O      -5.744000000000000      2.329000000000000      2.794000000000000
C      -6.286000000000000      3.243000000000000      3.706000000000000
C      -5.209000000000000      3.348000000000000      4.890000000000000
O      -4.550000000000000      4.597000000000000      4.727000000000000
C      -3.208000000000000      4.863000000000000      5.294000000000000
C      -2.119000000000000      4.747000000000000      4.240000000000000
O      -0.938000000000000      5.454000000000000      4.632000000000000
C      -0.779000000000000      6.741000000000000      3.877000000000000
C       0.365000000000000      6.534000000000000      2.832000000000000
O       0.381000000000000      7.666000000000000      1.900000000000000
C       1.654000000000000      7.861000000000000      1.146000000000000
C       1.280000000000000      8.590999999999999     -0.168000000000000
O       0.515000000000000      7.679000000000000     -1.027000000000000
C       0.610000000000000      7.983000000000000     -2.446000000000000
C       0.084000000000000      6.783000000000000     -3.177000000000000
O      -1.231000000000000      7.058000000000000     -3.761000000000000
C      -2.324000000000000      6.717000000000000     -2.921000000000000
C      -2.802000000000000      5.269000000000000     -3.127000000000000
H      -4.315000000000000      3.139000000000000     -2.936000000000000
H      -3.512000000000000      3.309000000000000     -1.376000000000000
H      -6.443000000000000      3.565000000000000     -1.939000000000000
H      -5.816000000000000      4.746000000000000     -0.844000000000000
H      -7.786000000000000      2.622000000000000      0.023000000000000
H      -6.966000000000000      3.874000000000000      0.972000000000000
H      -7.689000000000000      1.747000000000000      2.390000000000000
H      -6.495000000000000      0.902000000000000      1.464000000000000
H      -6.436000000000000      4.220000000000000      3.230000000000000
H      -7.276000000000000      2.910000000000000      4.041000000000000
H      -4.486000000000000      2.536000000000000      4.744000000000000
H      -5.793000000000000      3.182000000000000      5.804000000000000
H      -3.144000000000000      5.871000000000000      5.722000000000000
H      -2.999000000000000      4.075000000000000      6.028000000000000
H      -2.557000000000000      5.194000000000000      3.340000000000000
H      -1.892000000000000      3.682000000000000      4.107000000000000
H      -0.536000000000000      7.566000000000000      4.558000000000000
H      -1.689000000000000      6.981000000000000      3.314000000000000
H       1.254000000000000      6.538000000000000      3.476000000000000
H       0.295000000000000      5.591000000000000      2.276000000000000
H       2.161000000000000      6.913000000000000      0.925000000000000
H       2.300000000000000      8.430999999999999      1.824000000000000
H       2.190000000000000      8.923999999999999     -0.683000000000000
H       0.615000000000000      9.417999999999999      0.110000000000000
H       0.074000000000000      8.896000000000001     -2.731000000000000
H       1.629000000000000      8.206000000000000     -2.784000000000000
H       0.765000000000000      6.590000000000000     -4.015000000000000
H       0.101000000000000      5.865000000000000     -2.577000000000000
H      -3.161000000000000      7.382000000000000     -3.169000000000000
H      -1.985000000000000      6.706000000000000     -1.878000000000000
H      -2.062000000000000      4.531000000000000     -2.794000000000000
H      -3.087000000000000      5.037000000000000     -4.160000000000000
56

O      -4.575000000000000      1.583000000000000      0.479000000000000
C      -4.535000000000000      1.059000000000000      1.788000000000000
C      -4.880000000000000      2.200000000000000      2.779000000000000
O      -3.704000000000000      2.916000000000000      3.241000000000000
C      -3.974000000000000      3.809000000000000      4.416000000000000
C      -2.788000000000000      4.701000000000000      4.814000000000000
O      -1.517000000000000      3.860000000000000      4.618000000000000
C      -0.370000000000000      4.589000000000000      5.050000000000000
C       0.313000000000000      5.529000000000000      3.910000000000000
O       1.165000000000000      4.630000000000000      3.109000000000000
C       1.735000000000000      5.229000000000000      1.906000000000000
C       2.701000000000000      4.246000000000000      1.137000000000000
O       2.890000000000000      4.787000000000000     -0.172000000000000
C       3.848000000000000      4.101000000000000     -1.049000000000000
C       3.113000000000000      2.916000000000000     -1.821000000000000
O       2.102000000000000      3.316000000000000     -2.779000000000000
C       2.089000000000000      2.704000000000000     -4.092000000000000
C       1.342000000000000      1.362000000000000     -3.911000000000000
O      -0.104000000000000      1.696000000000000     -3.875000000000000
C      -1.029000000000000      0.634000000000000     -3.570000000000000
C      -2.450000000000000      1.231000000000000     -3.930000000000000
O      -3.414000000000000      0.737000000000000     -2.974000000000000
C      -3.813000000000000      1.624000000000000     -1.853000000000000
C      -4.102000000000000      0.734000000000000     -0.576000000000000
H      -5.222000000000000      0.205000000000000      1.819000000000000
H      -3.529000000000000      0.676000000000000      2.000000000000000
H      -5.377000000000000      1.745000000000000      3.645000000000000
H      -5.522000000000000      2.910000000000000      2.243000000000000
H      -4.153000000000000      3.133000000000000      5.261000000000000
H      -4.831000000000000      4.432000000000000      4.130000000000000
H      -2.715000000000000      5.507000000000000      4.074000000000000
H      -2.871000000000000      5.179000000000000      5.797000000000000
H      -0.531000000000000      5.122000000000000      5.994000000000000
H       0.414000000000000      3.861000000000000      5.293000000000000
H       0.968000000000000      6.191000000000000      4.490000000000000
H      -0.428000000000000      6.120000000000000      3.356000000000000
H       0.936000000000000      5.553000000000000      1.227000000000000
H       2.263000000000000      6.107000000000000      2.298000000000000
H       2.385000000000000      3.197000000000000      1.083000000000000
H       3.648000000000000      4.337000000000000      1.683000000000000
H       4.600000000000000      3.624000000000000     -0.409000000000000
H       4.285000000000000      4.722000000000000     -1.841000000000000
H       3.920000000000000      2.322000000000000     -2.268000000000000
H       2.749000000000000      2.250000000000000     -1.029000000000000
H       3.110000000000000      2.578000000000000     -4.473000000000000
H       1.575000000000000      3.388000000000000     -4.778000000000000
H       1.698000000000000      0.698000000000000     -3.114000000000000
H       1.566000000000000      0.860000000000000     -4.861000000000000
H      -0.923000000000000     -0.295000000000000     -4.143000000000000
H      -0.986000000000000      0.377000000000000     -2.504000000000000
H      -2.411000000000000      2.323000000000000     -3.826000000000000
H      -2.707000000000000      0.873000000000000     -4.934000000000000
H      -4.717000000000000      2.217000000000000     -2.039000000000000
H      -2.987000000000000      2.294000000000000     -1.581000000000000
H      -3.147000000000000      0.266000000000000     -0.305000000000000
H      -4.802000000000000     -0.044000000000000     -0.906000000000000
56

O       2.555000000000000      1.913000000000000     -1.677000000000000
C       2.080000000000000      0.519000000000000     -1.538000000000000
C       1.427000000000000     -0.012000000000000     -2.878000000000000
O       0.234000000000000     -0.806000000000000     -2.508000000000000
C      -0.466000000000000     -1.281000000000000     -3.686000000000000
C      -1.496000000000000     -0.185000000000000     -4.161000000000000
O      -2.620000000000000     -0.112000000000000     -3.203000000000000
C      -3.586000000000000      0.930000000000000     -3.327000000000000
C      -4.287000000000000      1.114000000000000     -1.942000000000000
O      -5.405000000000000      2.068000000000000     -2.080000000000000
C      -5.069000000000000      3.441000000000000     -1.729000000000000
C      -5.145000000000000      3.656000000000000     -0.088000000000000
O      -5.121000000000000      5.082000000000000      0.194000000000000
C      -4.994000000000000      5.436000000000000      1.630000000000000
C      -4.161000000000000      6.747000000000000      1.700000000000000
O      -2.796000000000000      6.413000000000000      2.026000000000000
C      -2.382000000000000      6.769000000000000      3.341000000000000
C      -0.888000000000000      6.853000000000000      3.384000000000000
O      -0.225000000000000      5.567000000000000      3.093000000000000
C       0.760000000000000      5.663000000000000      2.040000000000000
C       1.558000000000000      4.317000000000000      1.936000000000000
O       2.605000000000000      4.572000000000000      0.966000000000000
C       2.510000000000000      3.945000000000000     -0.281000000000000
C       2.947000000000000      2.513000000000000     -0.336000000000000
H       2.871000000000000     -0.068000000000000     -1.055000000000000
H       1.331000000000000      0.471000000000000     -0.737000000000000
H       2.143000000000000     -0.676000000000000     -3.378000000000000
H       1.143000000000000      0.868000000000000     -3.469000000000000
H      -0.916000000000000     -2.275000000000000     -3.570000000000000
H       0.267000000000000     -1.341000000000000     -4.500000000000000
H      -0.937000000000000      0.759000000000000     -4.161000000000000
H      -1.817000000000000     -0.512000000000000     -5.158000000000000
H      -3.110000000000000      1.840000000000000     -3.712000000000000
H      -4.337000000000000      0.662000000000000     -4.080000000000000
H      -3.578000000000000      1.430000000000000     -1.167000000000000
H      -4.649000000000000      0.140000000000000     -1.589000000000000
H      -4.073000000000000      3.693000000000000     -2.115000000000000
H      -5.853000000000000      3.981000000000000     -2.274000000000000
H      -4.274000000000000      3.074000000000000      0.239000000000000
H      -6.112000000000000      3.221000000000000      0.192000000000000
H      -4.418000000000000      4.673000000000000      2.167000000000000
H      -5.969000000000000      5.618000000000000      2.099000000000000
H      -4.333000000000000      7.276000000000000      0.755000000000000
H      -4.518000000000000      7.362000000000000      2.535000000000000
H      -2.677000000000000      6.051000000000000      4.116000000000000
H      -2.687000000000000      7.767000000000000      3.678000000000000
H      -0.574000000000000      7.327000000000000      4.322000000000000
H      -0.675000000000000      7.528000000000000      2.546000000000000
H       0.235000000000000      5.845000000000000      1.094000000000000
H       1.472000000000000      6.464000000000000      2.273000000000000
H       1.980000000000000      4.159000000000000      2.936000000000000
H       0.910000000000000      3.465000000000000      1.694000000000000
H       3.092000000000000      4.481000000000000     -1.041000000000000
H       1.440000000000000      3.944000000000000     -0.527000000000000
H       2.465000000000000      2.057000000000000      0.538000000000000
H       4.031000000000000      2.453000000000000     -0.176000000000000
56

O       2.233000000000000      1.541000000000000      6.162000000000000
C       3.471000000000000      1.481000000000000      5.419000000000000
C       4.277000000000000      0.264000000000000      5.942000000000000
O       5.345000000000000     -0.203000000000000      4.977000000000000
C       6.198000000000000     -1.266000000000000      5.507000000000000
C       5.629000000000000     -2.603000000000000      5.040000000000000
O       5.995000000000000     -2.741000000000000      3.657000000000000
C       5.877000000000000     -4.134000000000000      3.226000000000000
C       5.029000000000000     -4.228000000000000      1.972000000000000
O       3.713000000000000     -4.624000000000000      2.331000000000000
C       2.712000000000000     -4.457000000000000      1.386000000000000
C       1.490000000000000     -5.353000000000000      1.788000000000000
O       0.234000000000000     -4.726000000000000      1.198000000000000
C      -0.261000000000000     -3.539000000000000      1.880000000000000
C      -1.175000000000000     -3.978000000000000      3.071000000000000
O      -2.042000000000000     -2.785000000000000      3.338000000000000
C      -2.471000000000000     -2.598000000000000      4.717000000000000
C      -3.501000000000000     -1.371000000000000      4.811000000000000
O      -2.923000000000000     -0.256000000000000      5.632000000000000
C      -3.130000000000000      1.098000000000000      5.090000000000000
C      -1.866000000000000      2.001000000000000      5.068000000000000
O      -0.911000000000000      1.600000000000000      6.156000000000000
C      -0.007000000000000      2.589000000000000      6.635000000000000
C       1.319000000000000      2.582000000000000      5.789000000000000
H       3.179000000000000      1.433000000000000      4.363000000000000
H       4.135000000000000      2.350000000000000      5.504000000000000
H       3.493000000000000     -0.489000000000000      6.089000000000000
H       4.725000000000000      0.430000000000000      6.929000000000000
H       6.352000000000000     -1.203000000000000      6.591000000000000
H       7.202000000000000     -1.090000000000000      5.102000000000000
H       6.110000000000000     -3.406000000000000      5.612000000000000
H       4.536000000000000     -2.665000000000000      5.110000000000000
H       6.851000000000000     -4.598000000000000      3.029000000000000
H       5.413000000000000     -4.745000000000000      4.011000000000000
H       5.513000000000000     -5.034000000000000      1.406000000000000
H       5.061000000000000     -3.288000000000000      1.407000000000000
H       2.433000000000000     -3.396000000000000      1.417000000000000
H       3.044000000000000     -4.720000000000000      0.374000000000000
H       1.347000000000000     -5.387000000000000      2.875000000000000
H       1.628000000000000     -6.380000000000000      1.428000000000000
H      -0.882000000000000     -2.983000000000000      1.168000000000000
H       0.562000000000000     -2.904000000000000      2.231000000000000
H      -1.714000000000000     -4.885000000000000      2.771000000000000
H      -0.574000000000000     -4.221000000000000      3.956000000000000
H      -1.523000000000000     -2.507000000000000      5.261000000000000
H      -2.932000000000000     -3.489000000000000      5.162000000000000
H      -4.472000000000000     -1.568000000000000      5.282000000000000
H      -3.671000000000000     -1.028000000000000      3.783000000000000
H      -3.611000000000000      1.101000000000000      4.104000000000000
H      -3.761000000000000      1.655000000000000      5.793000000000000
H      -1.395000000000000      1.864000000000000      4.087000000000000
H      -2.319000000000000      2.997000000000000      5.137000000000000
H       0.120000000000000      2.693000000000000      7.720000000000000
H      -0.391000000000000      3.560000000000000      6.301000000000000
H       1.790000000000000      3.557000000000000      5.970000000000000
H       1.003000000000000      2.427000000000000      4.750000000000000
56

O      -3.153000000000000      4.899000000000000     -0.911000000000000
C      -3.486000000000000      5.516000000000000      0.340000000000000
C      -2.146000000000000      6.056000000000000      0.745000000000000
O      -2.071000000000000      6.216000000000000      2.214000000000000
C      -0.703000000000000      6.310000000000000      2.693000000000000
C      -0.103000000000000      4.895000000000000      2.696000000000000
O       0.815000000000000      4.707000000000000      3.799000000000000
C       0.211000000000000      4.074000000000000      4.939000000000000
C       1.215000000000000      3.024000000000000      5.449000000000000
O       1.245000000000000      1.856000000000000      4.588000000000000
C       0.703000000000000      0.688000000000000      5.242000000000000
C       0.851000000000000     -0.619000000000000      4.285000000000000
O      -0.375000000000000     -0.935000000000000      3.535000000000000
C      -0.418000000000000     -1.924000000000000      2.529000000000000
C      -1.910000000000000     -1.896000000000000      1.956000000000000
O      -1.818000000000000     -2.514000000000000      0.634000000000000
C      -2.121000000000000     -1.558000000000000     -0.429000000000000
C      -3.638000000000000     -1.338000000000000     -0.505000000000000
O      -3.855000000000000     -0.372000000000000     -1.615000000000000
C      -5.098000000000000      0.397000000000000     -1.542000000000000
C      -5.152000000000000      1.495000000000000     -2.563000000000000
O      -3.968000000000000      2.308000000000000     -2.486000000000000
C      -4.078000000000000      3.712000000000000     -2.794000000000000
C      -4.387000000000000      4.534000000000000     -1.539000000000000
H      -4.298000000000000      6.245000000000000      0.232000000000000
H      -3.760000000000000      4.799000000000000      1.124000000000000
H      -2.054000000000000      7.031000000000000      0.250000000000000
H      -1.319000000000000      5.438000000000000      0.376000000000000
H      -0.698000000000000      6.808000000000000      3.670000000000000
H      -0.100000000000000      6.912000000000000      2.002000000000000
H      -0.962000000000000      4.213000000000000      2.723000000000000
H       0.463000000000000      4.754000000000000      1.768000000000000
H       0.092000000000000      4.881000000000000      5.672000000000000
H      -0.810000000000000      3.747000000000000      4.708000000000000
H       0.857000000000000      2.715000000000000      6.438000000000000
H       2.235000000000000      3.420000000000000      5.526000000000000
H       1.252000000000000      0.374000000000000      6.138000000000000
H      -0.295000000000000      0.837000000000000      5.673000000000000
H       1.069000000000000     -1.482000000000000      4.927000000000000
H       1.752000000000000     -0.702000000000000      3.665000000000000
H      -0.104000000000000     -2.923000000000000      2.857000000000000
H       0.330000000000000     -1.637000000000000      1.779000000000000
H      -2.661000000000000     -2.384000000000000      2.590000000000000
H      -2.175000000000000     -0.837000000000000      1.848000000000000
H      -1.800000000000000     -1.846000000000000     -1.438000000000000
H      -1.680000000000000     -0.574000000000000     -0.226000000000000
H      -4.012000000000000     -0.947000000000000      0.449000000000000
H      -4.070000000000000     -2.298000000000000     -0.812000000000000
H      -5.966000000000000     -0.271000000000000     -1.598000000000000
H      -5.093000000000000      0.798000000000000     -0.521000000000000
H      -5.269000000000000      1.080000000000000     -3.572000000000000
H      -6.061000000000000      2.087000000000000     -2.399000000000000
H      -4.806000000000000      3.892000000000000     -3.595000000000000
H      -3.064000000000000      3.933000000000000     -3.148000000000000
H      -5.012000000000000      3.900000000000000     -0.898000000000000
H      -4.929000000000000      5.456000000000000     -1.782000000000000
56

O      -2.951000000000000     -1.597000000000000     -2.369000000000000
C      -3.002000000000000     -0.329000000000000     -3.077000000000000
C      -1.707000000000000      0.431000000000000     -2.777000000000000
O      -1.836000000000000      1.725000000000000     -3.288000000000000
C      -1.286000000000000      2.812000000000000     -2.421000000000000
C       0.306000000000000      2.921000000000000     -2.458000000000000
O       0.740000000000000      4.161000000000000     -1.822000000000000
C       0.435000000000000      4.270000000000000     -0.458000000000000
C       1.740000000000000      4.641000000000000      0.294000000000000
O       1.475000000000000      4.599000000000000      1.754000000000000
C       2.725000000000000      4.633000000000000      2.530000000000000
C       3.081000000000000      3.192000000000000      2.986000000000000
O       1.888000000000000      2.495000000000000      3.370000000000000
C       2.118000000000000      1.264000000000000      4.098000000000000
C       0.974000000000000      0.238000000000000      3.809000000000000
O       1.207000000000000     -1.046000000000000      4.376000000000000
C       1.527000000000000     -2.150000000000000      3.416000000000000
C       0.239000000000000     -2.697000000000000      2.763000000000000
O       0.478000000000000     -2.918000000000000      1.342000000000000
C       0.330000000000000     -4.238000000000000      0.758000000000000
C      -1.029000000000000     -4.443000000000000      0.158000000000000
O      -0.996000000000000     -3.622000000000000     -1.060000000000000
C      -2.203000000000000     -3.810000000000000     -1.902000000000000
C      -2.255000000000000     -2.694000000000000     -2.982000000000000
H      -3.109000000000000     -0.454000000000000     -4.161000000000000
H      -3.890000000000000      0.265000000000000     -2.829000000000000
H      -0.933000000000000     -0.179000000000000     -3.257000000000000
H      -1.658000000000000      0.468000000000000     -1.681000000000000
H      -1.630000000000000      2.700000000000000     -1.385000000000000
H      -1.743000000000000      3.756000000000000     -2.743000000000000
H       0.806000000000000      2.074000000000000     -1.973000000000000
H       0.674000000000000      2.934000000000000     -3.491000000000000
H      -0.257000000000000      5.105000000000000     -0.295000000000000
H      -0.036000000000000      3.345000000000000     -0.100000000000000
H       1.840000000000000      5.686000000000000     -0.025000000000000
H       2.621000000000000      4.049000000000000      0.019000000000000
H       3.599000000000000      5.148000000000000      2.115000000000000
H       2.423000000000000      5.146000000000000      3.452000000000000
H       3.724000000000000      3.266000000000000      3.872000000000000
H       3.541000000000000      2.749000000000000      2.094000000000000
H       2.257000000000000      1.466000000000000      5.167000000000000
H       3.021000000000000      0.855000000000000      3.628000000000000
H       0.084000000000000      0.728000000000000      4.223000000000000
H       0.874000000000000      0.135000000000000      2.722000000000000
H       1.905000000000000     -3.053000000000000      3.911000000000000
H       2.211000000000000     -1.732000000000000      2.667000000000000
H      -0.531000000000000     -1.953000000000000      3.001000000000000
H       0.084000000000000     -3.638000000000000      3.305000000000000
H       1.141000000000000     -4.441000000000000      0.048000000000000
H       0.474000000000000     -5.002000000000000      1.531000000000000
H      -1.285000000000000     -5.483000000000000     -0.079000000000000
H      -1.786000000000000     -4.040000000000000      0.842000000000000
H      -3.081000000000000     -3.769000000000000     -1.245000000000000
H      -2.143000000000000     -4.776000000000000     -2.418000000000000
H      -2.732000000000000     -3.000000000000000     -3.922000000000000
H      -1.247000000000000     -2.314000000000000     -3.186000000000000
56

O      -5.173000000000000      4.267000000000000      0.510000000000000
C      -5.128000000000000      5.095000000000000      1.699000000000000
C      -3.657000000000000      5.390000000000000      1.981000000000000
O      -3.567000000000000      6.367000000000000      3.035000000000000
C      -3.319000000000000      5.891000000000000      4.357000000000000
C      -1.750000000000000      5.680000000000000      4.651000000000000
O      -1.522000000000000      5.701000000000000      6.070000000000000
C      -1.920000000000000      4.578000000000000      6.804000000000000
C      -0.777000000000000      3.605000000000000      7.148000000000000
O      -0.349000000000000      2.955000000000000      5.891000000000000
C       0.145000000000000      1.584000000000000      6.110000000000000
C      -1.015000000000000      0.537000000000000      6.245000000000000
O      -1.229000000000000     -0.143000000000000      4.983000000000000
C      -2.325000000000000     -1.059000000000000      4.756000000000000
C      -2.082000000000000     -1.678000000000000      3.373000000000000
O      -3.057000000000000     -2.675000000000000      3.090000000000000
C      -4.395000000000000     -2.160000000000000      2.739000000000000
C      -4.417000000000000     -1.901000000000000      1.235000000000000
O      -5.385000000000000     -0.868000000000000      0.882000000000000
C      -5.421000000000000     -0.494000000000000     -0.560000000000000
C      -6.428000000000000      0.670000000000000     -0.778000000000000
O      -5.639000000000000      1.894000000000000     -0.820000000000000
C      -6.413000000000000      3.026000000000000     -1.154000000000000
C      -6.477000000000000      3.926000000000000      0.098000000000000
H      -5.674000000000000      6.039000000000000      1.579000000000000
H      -5.482000000000000      4.614000000000000      2.619000000000000
H      -3.214000000000000      5.874000000000000      1.102000000000000
H      -3.091000000000000      4.479000000000000      2.211000000000000
H      -3.862000000000000      4.958000000000000      4.550000000000000
H      -3.611000000000000      6.598000000000000      5.143000000000000
H      -1.383000000000000      4.727000000000000      4.249000000000000
H      -1.235000000000000      6.510000000000000      4.153000000000000
H      -2.288000000000000      4.978000000000000      7.757000000000000
H      -2.773000000000000      4.096000000000000      6.312000000000000
H      -1.220000000000000      2.832000000000000      7.788000000000000
H       0.123000000000000      4.028000000000000      7.611000000000000
H       0.695000000000000      1.332000000000000      5.195000000000000
H       0.933000000000000      1.561000000000000      6.873000000000000
H      -1.849000000000000      1.104000000000000      6.677000000000000
H      -0.838000000000000     -0.234000000000000      7.005000000000000
H      -3.306000000000000     -0.573000000000000      4.829000000000000
H      -2.266000000000000     -1.841000000000000      5.523000000000000
H      -2.035000000000000     -0.976000000000000      2.532000000000000
H      -1.108000000000000     -2.180000000000000      3.306000000000000
H      -4.612000000000000     -1.254000000000000      3.317000000000000
H      -5.157000000000000     -2.895000000000000      3.023000000000000
H      -4.632000000000000     -2.785000000000000      0.621000000000000
H      -3.417000000000000     -1.560000000000000      0.939000000000000
H      -4.443000000000000     -0.110000000000000     -0.874000000000000
H      -5.633000000000000     -1.377000000000000     -1.175000000000000
H      -6.941000000000000      0.521000000000000     -1.736000000000000
H      -7.229000000000000      0.805000000000000     -0.040000000000000
H      -7.386000000000000      2.693000000000000     -1.535000000000000
H      -6.012000000000000      3.539000000000000     -2.037000000000000
H      -7.040000000000000      3.386000000000000      0.869000000000000
H      -6.973000000000000      4.875000000000000     -0.138000000000000
56

O      -7.393000000000000      3.989000000000000      1.453000000000000
C      -6.148000000000000      3.538000000000000      1.924000000000000
C      -5.758000000000000      4.437000000000000      3.164000000000000
O      -4.603000000000000      3.895000000000000      3.795000000000000
C      -4.358000000000000      4.318000000000000      5.131000000000000
C      -2.900000000000000      4.066000000000000      5.507000000000000
O      -2.666000000000000      2.648000000000000      5.681000000000000
C      -3.165000000000000      2.075000000000000      6.871000000000000
C      -2.952000000000000      0.555000000000000      6.906000000000000
O      -4.084000000000000     -0.065000000000000      7.598000000000000
C      -4.268000000000000     -1.486000000000000      7.559000000000000
C      -5.295000000000000     -1.843000000000000      6.431000000000000
O      -5.838000000000000     -3.119000000000000      6.620000000000000
C      -6.697000000000000     -3.540000000000000      5.534000000000000
C      -8.205000000000000     -3.339000000000000      5.989000000000000
O      -9.022000000000000     -2.695000000000000      4.958000000000000
C      -9.619000000000000     -3.548000000000000      3.975000000000000
C     -10.680000000000000     -2.656000000000000      3.185000000000000
O      -9.917999999999999     -1.791000000000000      2.302000000000000
C     -10.737000000000000     -1.184000000000000      1.255000000000000
C      -9.781000000000001     -0.229000000000000      0.434000000000000
O      -9.648999999999999      1.141000000000000      1.120000000000000
C      -8.462000000000000      1.896000000000000      0.987000000000000
C      -8.568000000000000      3.186000000000000      1.745000000000000
H      -6.136000000000000      2.498000000000000      2.272000000000000
H      -5.412000000000000      3.575000000000000      1.111000000000000
H      -6.617000000000000      4.602000000000000      3.825000000000000
H      -5.511000000000000      5.476000000000000      2.913000000000000
H      -5.050000000000000      3.778000000000000      5.789000000000000
H      -4.499000000000000      5.404000000000000      5.198000000000000
H      -2.320000000000000      4.406000000000000      4.641000000000000
H      -2.602000000000000      4.575000000000000      6.432000000000000
H      -2.690000000000000      2.582000000000000      7.719000000000000
H      -4.240000000000000      2.287000000000000      6.933000000000000
H      -2.030000000000000      0.380000000000000      7.475000000000000
H      -2.837000000000000      0.126000000000000      5.903000000000000
H      -3.331000000000000     -2.041000000000000      7.428000000000000
H      -4.813000000000000     -1.710000000000000      8.484000000000000
H      -4.776000000000000     -1.803000000000000      5.466000000000000
H      -6.125000000000000     -1.126000000000000      6.465000000000000
H      -6.671000000000000     -4.614000000000000      5.312000000000000
H      -6.501000000000000     -2.918000000000000      4.652000000000000
H      -8.548000000000000     -4.363000000000000      6.180000000000000
H      -8.355000000000000     -2.920000000000000      6.992000000000000
H     -10.148999999999999     -4.436000000000000      4.341000000000000
H      -8.888999999999999     -3.910000000000000      3.240000000000000
H     -11.301000000000000     -2.075000000000000      3.878000000000000
H     -11.345000000000001     -3.312000000000000      2.610000000000000
H     -11.130000000000001     -1.943000000000000      0.568000000000000
H     -11.535000000000000     -0.595000000000000      1.725000000000000
H      -8.766999999999999     -0.647000000000000      0.429000000000000
H     -10.117000000000001     -0.009000000000000     -0.587000000000000
H      -8.327000000000000      2.059000000000000     -0.089000000000000
H      -7.668000000000000      1.278000000000000      1.423000000000000
H      -8.723000000000001      2.989000000000000      2.813000000000000
H      -9.417000000000000      3.828000000000000      1.481000000000000
56

O      -6.148000000000000      3.513000000000000      8.074000000000000
C      -6.309000000000000      2.095000000000000      8.528000000000000
C      -4.944000000000000      1.307000000000000      8.667999999999999
O      -5.001000000000000     -0.126000000000000      8.348000000000001
C      -5.548000000000000     -0.893000000000000      9.382000000000000
C      -5.174000000000000     -2.358000000000000      9.193000000000000
O      -5.079000000000000     -2.823000000000000      7.762000000000000
C      -6.380000000000000     -3.123000000000000      7.130000000000000
C      -6.234000000000000     -3.745000000000000      5.702000000000000
O      -7.466000000000000     -3.781000000000000      4.999000000000000
C      -7.878000000000000     -2.711000000000000      4.176000000000000
C      -8.371000000000000     -3.167000000000000      2.775000000000000
O      -9.167999999999999     -2.070000000000000      2.275000000000000
C      -9.064000000000000     -1.815000000000000      0.875000000000000
C      -8.287000000000001     -0.554000000000000      0.652000000000000
O      -8.980000000000000      0.481000000000000      1.409000000000000
C      -9.792000000000000      1.467000000000000      0.631000000000000
C      -9.148999999999999      2.898000000000000      0.805000000000000
O      -9.122000000000000      3.258000000000000      2.225000000000000
C      -8.635999999999999      4.597000000000000      2.595000000000000
C      -8.689000000000000      4.724000000000000      4.165000000000000
O      -7.522000000000000      4.142000000000000      4.705000000000000
C      -7.570000000000000      3.783000000000000      6.107000000000000
C      -6.163000000000000      3.650000000000000      6.649000000000000
H      -6.852000000000000      2.035000000000000      9.478999999999999
H      -6.947000000000000      1.550000000000000      7.821000000000000
H      -4.629000000000000      1.421000000000000      9.712999999999999
H      -4.188000000000000      1.766000000000000      8.020000000000000
H      -6.632000000000000     -0.723000000000000      9.398999999999999
H      -5.070000000000000     -0.642000000000000     10.337000000000000
H      -4.197000000000000     -2.546000000000000      9.656000000000001
H      -5.901000000000000     -3.034000000000000      9.660000000000000
H      -6.972000000000000     -3.844000000000000      7.707000000000000
H      -7.007000000000000     -2.223000000000000      7.136000000000000
H      -6.063000000000000     -4.825000000000000      5.790000000000000
H      -5.447000000000000     -3.280000000000000      5.097000000000000
H      -8.629000000000000     -2.038000000000000      4.608000000000000
H      -6.989000000000000     -2.149000000000000      3.864000000000000
H      -8.818000000000000     -4.169000000000000      2.752000000000000
H      -7.452000000000000     -3.313000000000000      2.194000000000000
H     -10.063000000000001     -1.707000000000000      0.433000000000000
H      -8.545000000000000     -2.592000000000000      0.299000000000000
H      -7.254000000000000     -0.740000000000000      0.971000000000000
H      -8.298999999999999     -0.316000000000000     -0.419000000000000
H     -10.811999999999999      1.588000000000000      1.016000000000000
H      -9.943000000000000      1.224000000000000     -0.428000000000000
H      -9.680000000000000      3.692000000000000      0.264000000000000
H      -8.137000000000000      2.962000000000000      0.385000000000000
H      -7.634000000000000      4.734000000000000      2.168000000000000
H      -9.352000000000000      5.217000000000000      2.041000000000000
H      -8.689000000000000      5.755000000000000      4.538000000000000
H      -9.593000000000000      4.204000000000000      4.507000000000000
H      -8.207000000000001      2.900000000000000      6.238000000000000
H      -8.117000000000001      4.573000000000000      6.635000000000000
H      -5.534000000000000      4.520000000000000      6.423000000000000
H      -5.686000000000000      2.812000000000000      6.126000000000000
56

O      -1.688000000000000      3.842000000000000      8.683999999999999
C      -0.696000000000000      2.913000000000000      8.244999999999999
C      -0.444000000000000      1.833000000000000      9.305000000000000
O       0.870000000000000      1.205000000000000      9.031000000000001
C       0.970000000000000      0.080000000000000      8.145000000000000
C       0.558000000000000     -1.199000000000000      8.847000000000000
O      -0.138000000000000     -2.041000000000000      7.851000000000000
C      -0.745000000000000     -3.169000000000000      8.470000000000001
C      -1.444000000000000     -3.982000000000000      7.401000000000000
O      -2.855000000000000     -3.744000000000000      7.594000000000000
C      -3.592000000000000     -3.722000000000000      6.353000000000000
C      -4.913000000000000     -3.025000000000000      6.652000000000000
O      -5.640000000000000     -3.003000000000000      5.443000000000000
C      -5.581000000000000     -1.825000000000000      4.623000000000000
C      -6.312000000000000     -0.593000000000000      5.352000000000000
O      -6.614000000000000      0.376000000000000      4.397000000000000
C      -7.274000000000000      1.598000000000000      4.894000000000000
C      -6.387000000000000      2.893000000000000      4.894000000000000
O      -6.393000000000000      3.500000000000000      6.225000000000000
C      -6.016000000000000      4.918000000000000      6.306000000000000
C      -5.701000000000000      5.292000000000000      7.826000000000000
O      -4.397000000000000      4.700000000000000      8.163000000000000
C      -3.262000000000000      5.615000000000000      8.021000000000001
C      -1.974000000000000      4.754000000000000      7.579000000000000
H      -1.073000000000000      2.389000000000000      7.358000000000000
H       0.263000000000000      3.421000000000000      8.089000000000000
H      -1.263000000000000      1.105000000000000      9.243000000000000
H      -0.447000000000000      2.232000000000000     10.326000000000001
H       1.979000000000000     -0.033000000000000      7.730000000000000
H       0.225000000000000      0.243000000000000      7.357000000000000
H       1.508000000000000     -1.594000000000000      9.226000000000001
H      -0.090000000000000     -0.996000000000000      9.709000000000000
H      -0.050000000000000     -3.808000000000000      9.028000000000000
H      -1.517000000000000     -2.783000000000000      9.147000000000000
H      -1.374000000000000     -5.043000000000000      7.672000000000000
H      -0.981000000000000     -3.847000000000000      6.415000000000000
H      -3.004000000000000     -3.059000000000000      5.706000000000000
H      -3.648000000000000     -4.730000000000000      5.925000000000000
H      -4.843000000000000     -2.025000000000000      7.097000000000000
H      -5.362000000000000     -3.661000000000000      7.425000000000000
H      -6.171000000000000     -2.119000000000000      3.747000000000000
H      -4.543000000000000     -1.591000000000000      4.354000000000000
H      -7.178000000000000     -0.945000000000000      5.926000000000000
H      -5.618000000000000     -0.174000000000000      6.092000000000000
H      -7.497000000000000      1.360000000000000      5.942000000000000
H      -8.240000000000000      1.795000000000000      4.413000000000000
H      -6.763000000000000      3.581000000000000      4.128000000000000
H      -5.352000000000000      2.674000000000000      4.605000000000000
H      -5.170000000000000      5.222000000000000      5.678000000000000
H      -6.871000000000000      5.493000000000000      5.930000000000000
H      -5.716000000000000      6.367000000000000      8.045000000000000
H      -6.438000000000000      4.893000000000000      8.532999999999999
H      -3.201000000000000      6.171000000000000      8.964000000000000
H      -3.412000000000000      6.388000000000000      7.257000000000000
H      -1.082000000000000      5.353000000000000      7.359000000000000
H      -2.225000000000000      4.400000000000000      6.571000000000000
56

O      -5.201000000000000      5.284000000000000      5.351000000000000
C      -3.961000000000000      5.855000000000000      5.726000000000000
C      -2.795000000000000      5.523000000000000      4.745000000000000
O      -1.685000000000000      6.411000000000000      4.985000000000000
C      -0.950000000000000      6.341000000000000      6.235000000000000
C       0.145000000000000      5.284000000000000      6.137000000000000
O       0.958000000000000      5.321000000000000      7.349000000000000
C       1.359000000000000      4.028000000000000      7.824000000000000
C       0.699000000000000      3.838000000000000      9.188000000000001
O       0.909000000000000      2.457000000000000      9.651999999999999
C       0.412000000000000      2.108000000000000     10.962999999999999
C      -1.119000000000000      1.669000000000000     10.814000000000000
O      -1.185000000000000      0.323000000000000     10.228000000000000
C      -2.549000000000000     -0.017000000000000      9.823000000000000
C      -2.556000000000000     -0.897000000000000      8.615000000000000
O      -3.622000000000000     -0.515000000000000      7.754000000000000
C      -4.976000000000000     -1.207000000000000      7.819000000000000
C      -5.813000000000000     -0.666000000000000      6.682000000000000
O      -6.348000000000000      0.658000000000000      6.907000000000000
C      -7.342000000000000      1.101000000000000      5.952000000000000
C      -7.699000000000000      2.585000000000000      6.273000000000000
O      -7.300000000000000      3.560000000000000      5.257000000000000
C      -7.522000000000000      4.943000000000000      5.536000000000000
C      -6.328000000000000      5.498000000000000      6.245000000000000
H      -4.081000000000000      6.945000000000000      5.702000000000000
H      -3.692000000000000      5.430000000000000      6.701000000000000
H      -3.169000000000000      5.653000000000000      3.722000000000000
H      -2.546000000000000      4.461000000000000      4.866000000000000
H      -1.596000000000000      6.115000000000000      7.093000000000000
H      -0.550000000000000      7.354000000000000      6.360000000000000
H      -0.273000000000000      4.286000000000000      5.955000000000000
H       0.765000000000000      5.468000000000000      5.251000000000000
H       1.139000000000000      3.184000000000000      7.160000000000000
H       2.447000000000000      3.928000000000000      7.929000000000000
H      -0.387000000000000      3.987000000000000      9.145000000000000
H       1.096000000000000      4.577000000000000      9.894000000000000
H       0.964000000000000      1.300000000000000     11.459000000000000
H       0.432000000000000      3.005000000000000     11.593999999999999
H      -1.595000000000000      2.442000000000000     10.196999999999999
H      -1.572000000000000      1.704000000000000     11.811999999999999
H      -3.048000000000000      0.928000000000000      9.577999999999999
H      -3.025000000000000     -0.624000000000000     10.603999999999999
H      -1.649000000000000     -0.743000000000000      8.018000000000001
H      -2.555000000000000     -1.945000000000000      8.938000000000001
H      -5.507000000000000     -1.130000000000000      8.776000000000000
H      -4.825000000000000     -2.289000000000000      7.715000000000000
H      -6.719000000000000     -1.282000000000000      6.626000000000000
H      -5.242000000000000     -0.699000000000000      5.745000000000000
H      -7.022000000000000      0.952000000000000      4.913000000000000
H      -8.220000000000001      0.468000000000000      6.130000000000000
H      -8.778000000000000      2.557000000000000      6.472000000000000
H      -7.221000000000000      2.846000000000000      7.225000000000000
H      -8.486000000000001      5.065000000000000      6.045000000000000
H      -7.630000000000000      5.456000000000000      4.572000000000000
H      -6.174000000000000      4.979000000000000      7.199000000000000
H      -6.498000000000000      6.520000000000000      6.604000000000000
56

O      -7.211000000000000      5.786000000000000      0.706000000000000
C      -6.997000000000000      7.172000000000000      0.244000000000000
C      -6.265000000000000      8.013999999999999      1.354000000000000
O      -4.919000000000000      7.500000000000000      1.557000000000000
C      -4.078000000000000      8.247000000000000      2.451000000000000
C      -2.864000000000000      7.347000000000000      2.846000000000000
O      -2.410000000000000      7.657000000000000      4.227000000000000
C      -2.235000000000000      6.512000000000000      5.111000000000000
C      -2.883000000000000      6.809000000000000      6.471000000000000
O      -2.713000000000000      5.603000000000000      7.293000000000000
C      -3.101000000000000      5.606000000000000      8.734999999999999
C      -4.556000000000000      5.171000000000000      8.952000000000000
O      -4.655000000000000      3.773000000000000      8.563000000000001
C      -5.610000000000000      3.027000000000000      9.345000000000001
C      -5.831000000000000      1.665000000000000      8.586000000000000
O      -6.775000000000000      1.799000000000000      7.532000000000000
C      -7.446000000000000      0.607000000000000      6.974000000000000
C      -8.098000000000001      0.875000000000000      5.618000000000000
O      -7.030000000000000      0.968000000000000      4.648000000000000
C      -7.281000000000000      1.145000000000000      3.233000000000000
C      -8.021000000000001      2.570000000000000      3.028000000000000
O      -7.666000000000000      3.094000000000000      1.720000000000000
C      -8.672000000000001      3.964000000000000      1.146000000000000
C      -8.420000000000000      5.446000000000000      1.378000000000000
H      -6.335000000000000      7.179000000000000     -0.631000000000000
H      -7.922000000000000      7.688000000000000     -0.043000000000000
H      -6.745000000000000      7.921000000000000      2.336000000000000
H      -6.217000000000000      9.039000000000000      0.966000000000000
H      -4.715000000000000      8.461000000000000      3.318000000000000
H      -3.701000000000000      9.205000000000000      2.072000000000000
H      -3.208000000000000      6.310000000000000      2.743000000000000
H      -2.009000000000000      7.538000000000000      2.187000000000000
H      -2.677000000000000      5.617000000000000      4.654000000000000
H      -1.183000000000000      6.214000000000000      5.199000000000000
H      -3.945000000000000      6.949000000000000      6.235000000000000
H      -2.384000000000000      7.684000000000000      6.905000000000000
H      -2.449000000000000      5.121000000000000      9.472000000000000
H      -2.955000000000000      6.651000000000000      9.037000000000001
H      -5.229000000000000      5.768000000000000      8.324000000000000
H      -4.841000000000000      5.236000000000000     10.009000000000000
H      -6.536000000000000      3.609000000000000      9.433999999999999
H      -5.135000000000000      2.855000000000000     10.318000000000000
H      -4.896000000000000      1.147000000000000      8.339000000000000
H      -6.272000000000000      0.952000000000000      9.294000000000000
H      -8.150000000000000      0.219000000000000      7.721000000000000
H      -6.781000000000000     -0.250000000000000      6.812000000000000
H      -8.690000000000000      1.789000000000000      5.751000000000000
H      -8.776000000000000      0.049000000000000      5.370000000000000
H      -6.378000000000000      1.235000000000000      2.617000000000000
H      -7.981000000000000      0.367000000000000      2.905000000000000
H      -9.092000000000001      2.342000000000000      2.968000000000000
H      -7.735000000000000      3.299000000000000      3.797000000000000
H      -9.651999999999999      3.692000000000000      1.556000000000000
H      -8.882999999999999      3.750000000000000      0.091000000000000
H      -8.244999999999999      5.660000000000000      2.440000000000000
H      -9.282999999999999      6.031000000000000      1.037000000000000
56

O      -9.119000000000000      4.637000000000000      0.850000000000000
C      -9.592000000000001      5.941000000000000      1.298000000000000
C      -8.457000000000001      6.477000000000000      2.198000000000000
O      -8.115000000000000      5.473000000000000      3.173000000000000
C      -8.708000000000000      5.639000000000000      4.454000000000000
C      -8.121000000000000      4.586000000000000      5.383000000000000
O      -8.834000000000000      4.600000000000000      6.614000000000000
C      -9.263999999999999      3.322000000000000      7.069000000000000
C      -8.151999999999999      2.672000000000000      7.803000000000000
O      -8.526000000000000      1.355000000000000      8.394000000000000
C      -8.536000000000000      0.232000000000000      7.535000000000000
C     -10.042999999999999     -0.158000000000000      7.086000000000000
O     -10.063000000000001     -1.621000000000000      7.002000000000000
C      -9.481000000000000     -2.061000000000000      5.688000000000000
C     -10.645000000000000     -2.433000000000000      4.824000000000000
O     -10.260999999999999     -2.589000000000000      3.440000000000000
C      -9.976000000000001     -1.453000000000000      2.590000000000000
C      -9.205000000000000     -1.959000000000000      1.372000000000000
O      -8.875000000000000     -0.829000000000000      0.500000000000000
C      -9.943000000000000     -0.280000000000000     -0.211000000000000
C      -9.351000000000001      0.815000000000000     -1.087000000000000
O      -9.177000000000000      2.075000000000000     -0.300000000000000
C      -8.285000000000000      3.093000000000000     -0.870000000000000
C      -8.884000000000000      4.498000000000000     -0.565000000000000
H      -9.820000000000000      6.692000000000000      0.531000000000000
H     -10.400000000000000      5.795000000000000      2.025000000000000
H      -8.782999999999999      7.430000000000000      2.633000000000000
H      -7.570000000000000      6.571000000000000      1.560000000000000
H      -9.772000000000000      5.450000000000000      4.264000000000000
H      -8.509000000000000      6.653000000000000      4.820000000000000
H      -8.220000000000001      3.604000000000000      4.904000000000000
H      -7.039000000000000      4.713000000000000      5.511000000000000
H     -10.039999999999999      3.509000000000000      7.822000000000000
H      -9.747000000000000      2.714000000000000      6.293000000000000
H      -7.837000000000000      3.319000000000000      8.631000000000000
H      -7.231000000000000      2.647000000000000      7.206000000000000
H      -7.874000000000000      0.321000000000000      6.664000000000000
H      -8.045000000000000     -0.517000000000000      8.167999999999999
H     -10.270000000000000      0.379000000000000      6.156000000000000
H     -10.782999999999999      0.145000000000000      7.837000000000000
H      -8.738000000000000     -2.860000000000000      5.795000000000000
H      -8.840000000000000     -1.276000000000000      5.267000000000000
H     -11.025000000000000     -3.418000000000000      5.121000000000000
H     -11.468999999999999     -1.717000000000000      4.942000000000000
H      -9.329000000000001     -0.795000000000000      3.183000000000000
H     -10.933000000000000     -1.009000000000000      2.288000000000000
H      -9.744999999999999     -2.722000000000000      0.799000000000000
H      -8.241000000000000     -2.339000000000000      1.733000000000000
H     -10.455000000000000     -1.068000000000000     -0.778000000000000
H     -10.690000000000000      0.212000000000000      0.424000000000000
H      -8.455000000000000      0.446000000000000     -1.601000000000000
H     -10.119000000000000      0.947000000000000     -1.860000000000000
H      -8.278000000000000      3.076000000000000     -1.967000000000000
H      -7.279000000000000      3.048000000000000     -0.434000000000000
H      -9.801000000000000      4.629000000000000     -1.152000000000000
H      -8.209000000000000      5.241000000000000     -1.006000000000000
56

O      -9.065000000000000      6.734000000000000      1.078000000000000
C      -9.747000000000000      7.722000000000000      0.329000000000000
C     -10.699000000000000      8.464000000000000      1.299000000000000
O     -10.085000000000001      8.962999999999999      2.574000000000000
C     -10.996000000000000      9.423000000000000      3.587000000000000
C     -11.733000000000001      8.202000000000000      4.333000000000000
O     -10.942000000000000      7.752000000000000      5.467000000000000
C     -11.565000000000000      7.682000000000000      6.752000000000000
C     -10.919000000000000      6.532000000000000      7.448000000000000
O     -11.499000000000001      5.243000000000000      7.184000000000000
C     -11.318000000000000      4.259000000000000      8.244000000000000
C      -9.851000000000001      3.651000000000000      8.116000000000000
O      -9.917000000000000      2.313000000000000      7.657000000000000
C      -8.564000000000000      1.612000000000000      7.664000000000000
C      -8.749000000000001      0.271000000000000      6.931000000000000
O      -9.006000000000000      0.539000000000000      5.545000000000000
C      -7.804000000000000      0.439000000000000      4.673000000000000
C      -8.311999999999999      0.122000000000000      3.212000000000000
O      -8.933000000000000      1.256000000000000      2.581000000000000
C      -8.608000000000001      1.333000000000000      1.212000000000000
C      -9.494999999999999      2.461000000000000      0.586000000000000
O      -8.895000000000000      3.728000000000000      0.888000000000000
C      -8.794000000000000      4.654000000000000     -0.173000000000000
C      -8.159000000000001      6.004000000000000      0.344000000000000
H      -9.086000000000000      8.446000000000000     -0.165000000000000
H     -10.305999999999999      7.146000000000000     -0.418000000000000
H     -11.423999999999999      7.685000000000000      1.565000000000000
H     -11.247000000000000      9.243000000000000      0.755000000000000
H     -11.818000000000000     10.065000000000000      3.247000000000000
H     -10.499000000000001     10.057000000000000      4.333000000000000
H     -12.792999999999999      8.321999999999999      4.587000000000000
H     -11.771000000000001      7.349000000000000      3.644000000000000
H     -11.475000000000000      8.619999999999999      7.313000000000000
H     -12.638999999999999      7.455000000000000      6.754000000000000
H     -11.000000000000000      6.716000000000000      8.526000000000000
H      -9.834000000000000      6.556000000000000      7.291000000000000
H     -11.407999999999999      4.755000000000000      9.218999999999999
H     -12.113000000000000      3.503000000000000      8.238000000000000
H      -9.416000000000000      3.592000000000000      9.121000000000000
H      -9.237000000000000      4.342000000000000      7.525000000000000
H      -8.273999999999999      1.494000000000000      8.715000000000000
H      -7.826000000000000      2.264000000000000      7.181000000000000
H      -7.871000000000000     -0.383000000000000      7.007000000000000
H      -9.640000000000001     -0.198000000000000      7.367000000000000
H      -7.196000000000000     -0.393000000000000      5.046000000000000
H      -7.174000000000000      1.333000000000000      4.582000000000000
H      -9.010999999999999     -0.715000000000000      3.331000000000000
H      -7.433000000000000     -0.182000000000000      2.629000000000000
H      -7.545000000000000      1.528000000000000      1.026000000000000
H      -8.821999999999999      0.350000000000000      0.775000000000000
H      -9.417999999999999      2.301000000000000     -0.497000000000000
H     -10.545000000000000      2.435000000000000      0.901000000000000
H      -9.756000000000000      4.904000000000000     -0.637000000000000
H      -8.060000000000000      4.259000000000000     -0.887000000000000
H      -7.770000000000000      6.621000000000000     -0.475000000000000
H      -7.290000000000000      5.828000000000000      0.990000000000000
