33
weak_stopper dimer, wheel=atoms1-20 rod=atoms21-33 (FIXED: 4-col only)
C         -1.049726        1.406927       -4.404410
O         -0.688090        1.660106       -3.068649
C          0.622139        1.528961       -2.717495
C          1.608988        0.975350       -3.514514
C          2.910422        0.857585       -3.043891
C          3.233901        1.314758       -1.785242
C          2.260936        1.896967       -0.982293
C          0.953981        1.996860       -1.426441
O         -0.084871        2.510002       -0.701412
C          0.214324        3.141345        0.521456
H         -0.914823        0.355220       -4.673399
H         -0.479131        2.033727       -5.096164
H          1.378420        0.629753       -4.509031
H          3.663803        0.403850       -3.668645
H          4.242835        1.229364       -1.413377
H          2.532419        2.261822       -0.004309
H          0.916089        3.971161        0.383036
H          0.623918        2.433186        1.250277
H         -2.106207        1.659174       -4.469744
H         -0.732538        3.531703        0.892811
O         -2.155768       -0.615986       -0.677651
C         -0.919714       -1.009057       -0.995874
C          0.173033       -0.826682       -0.145114
F         -0.053373       -0.224789        1.039583
C          1.454698       -1.239070       -0.479370
F          2.464504       -1.043479        0.369130
C          1.674152       -1.864031       -1.701341
F          2.898664       -2.270170       -2.042216
C          0.602093       -2.067064       -2.565082
F          0.802618       -2.663967       -3.742033
C         -0.675383       -1.648438       -2.215489
F         -1.688054       -1.854688       -3.061946
H         -2.146197       -0.096193        0.139482
