13
weak_stopper rod-side fragment (FIXED: 4-col only)
O         -2.155768       -0.615986       -0.677651
C         -0.919714       -1.009057       -0.995874
C          0.173033       -0.826682       -0.145114
F         -0.053373       -0.224789        1.039583
C          1.454698       -1.239070       -0.479370
F          2.464504       -1.043479        0.369130
C          1.674152       -1.864031       -1.701341
F          2.898664       -2.270170       -2.042216
C          0.602093       -2.067064       -2.565082
F          0.802618       -2.663967       -3.742033
C         -0.675383       -1.648438       -2.215489
F         -1.688054       -1.854688       -3.061946
H         -2.146197       -0.096193        0.139482
