20
weak_stopper wheel fragment (same ring every pairing) (FIXED: 4-col only)
C         -1.049726        1.406927       -4.404410
O         -0.688090        1.660106       -3.068649
C          0.622139        1.528961       -2.717495
C          1.608988        0.975350       -3.514514
C          2.910422        0.857585       -3.043891
C          3.233901        1.314758       -1.785242
C          2.260936        1.896967       -0.982293
C          0.953981        1.996860       -1.426441
O         -0.084871        2.510002       -0.701412
C          0.214324        3.141345        0.521456
H         -0.914823        0.355220       -4.673399
H         -0.479131        2.033727       -5.096164
H          1.378420        0.629753       -4.509031
H          3.663803        0.403850       -3.668645
H          4.242835        1.229364       -1.413377
H          2.532419        2.261822       -0.004309
H          0.916089        3.971161        0.383036
H          0.623918        2.433186        1.250277
H         -2.106207        1.659174       -4.469744
H         -0.732538        3.531703        0.892811
