128
central_cf3side dimer (whole structure, as scored by UMA)
C 6.422000 1.410000 4.208000
O 6.058000 1.509000 2.833000
C 6.153000 0.340000 2.155000
O 6.588000 -0.691000 2.524000
C 5.593000 0.456000 0.765000
C 5.250000 1.664000 0.198000
C 4.713000 1.747000 -1.075000
C 4.121000 3.039000 -1.518000
N 2.672000 3.001000 -1.774000
C 1.689000 3.133000 -0.799000
O 1.944000 3.581000 0.332000
C 0.394000 2.661000 -1.212000
C -0.643000 2.923000 -0.326000
C -1.882000 2.409000 -0.644000
C -2.029000 1.548000 -1.780000
C -3.352000 0.931000 -2.089000
O -3.706000 0.782000 -3.259000
N -3.938000 0.417000 -0.955000
C -5.045000 -0.556000 -1.227000
C -5.677000 -1.006000 0.068000
C -5.086000 -2.101000 0.713000
C -5.632000 -2.633000 1.923000
C -4.941000 -3.817000 2.658000
F -5.229000 -3.958000 3.939000
F -3.562000 -3.749000 2.594000
F -5.256000 -4.942000 2.034000
C -6.786000 -2.087000 2.401000
C -7.355000 -0.936000 1.804000
C -8.668000 -0.244000 2.316000
F -9.413000 0.150000 1.232000
F -9.526000 -1.074000 2.977000
F -8.470000 0.904000 3.055000
C -6.778000 -0.389000 0.624000
C -0.981000 1.288000 -2.650000
C 0.242000 1.805000 -2.314000
C 4.665000 0.598000 -1.855000
C 5.128000 -0.640000 -1.380000
C 5.026000 -1.934000 -2.215000
O 4.717000 -1.882000 -3.386000
O 5.423000 -3.041000 -1.492000
C 5.360000 -4.212000 -2.237000
C 5.612000 -0.670000 -0.043000
H 5.702000 0.732000 4.682000
H 7.417000 0.973000 4.358000
H 6.481000 2.385000 4.708000
H 5.082000 2.493000 0.878000
H 4.403000 3.833000 -0.815000
H 4.546000 3.267000 -2.503000
H 2.411000 2.645000 -2.686000
H -0.552000 3.571000 0.541000
H -2.763000 2.712000 -0.087000
H -3.371000 0.206000 -0.143000
H -5.802999 -0.193000 -1.933000
H -4.614000 -1.451000 -1.692000
H -4.209000 -2.559000 0.266000
H -7.263000 -2.556000 3.257000
H -7.269000 0.468000 0.174000
H -1.091000 0.629000 -3.507000
H 1.063000 1.604000 -2.995000
H 4.195000 0.673000 -2.831000
H 4.298000 -4.324000 -2.489000
H 5.686000 -5.055000 -1.617000
H 5.964000 -4.193000 -3.152000
H 5.872000 -1.597000 0.460000
C -4.887000 4.896000 -7.065000
C -4.685000 5.918000 -6.083000
C -4.621000 5.546000 -4.728000
C -5.155000 4.230000 -4.363000
C -5.371000 3.274000 -5.343000
C -5.090000 3.593000 -6.693000
O -5.634000 2.000000 -4.969000
C -5.856000 0.957000 -5.888000
C -6.084000 -0.407000 -5.161000
O -5.746000 -1.481000 -6.167000
C -4.382000 -1.923000 -6.146000
C -4.171000 -2.822000 -4.983000
O -2.716000 -2.924000 -4.700000
C -2.116000 -2.174000 -3.621000
C -2.094000 -3.134000 -2.390000
O -2.043000 -2.335000 -1.124000
C -0.932000 -1.699000 -0.635000
C 0.325000 -1.872000 -1.261000
C 1.422000 -1.244000 -0.770000
C 1.347000 -0.396000 0.302000
C 0.176000 -0.108000 0.895000
C -1.001000 -0.775000 0.494000
O -2.226000 -0.481000 1.201000
C -2.170000 0.019000 2.545000
C -3.615000 0.152000 3.127000
O -4.320000 1.115000 2.175000
C -4.187000 2.613000 2.463000
C -5.358000 3.318000 1.664000
O -4.850000 4.081000 0.496000
C -5.524000 3.763000 -0.730000
C -4.790000 4.396000 -1.910000
O -5.389000 3.823000 -3.039000
H -4.762000 5.078000 -8.129000
H -4.332000 6.895000 -6.399000
H -4.308000 6.171000 -3.897000
H -5.173000 2.890000 -7.517000
H -6.783000 1.059000 -6.465000
H -4.977000 0.972000 -6.544000
H -7.110000 -0.456000 -4.777000
H -5.527000 -0.454000 -4.218000
H -4.106000 -2.557000 -6.998000
H -3.719000 -1.053000 -6.227000
H -4.523000 -3.841000 -5.190000
H -4.621000 -2.374000 -4.088000
H -1.116000 -1.825000 -3.909000
H -2.734000 -1.281000 -3.465000
H -3.028000 -3.706000 -2.342000
H -1.278000 -3.850000 -2.549000
H 0.410000 -2.307000 -2.253000
H 2.349000 -1.330000 -1.330000
H 2.322000 -0.058000 0.641000
H 0.271000 0.718000 1.593000
H -1.700000 1.010000 2.583000
H -1.652000 -0.642000 3.251000
H -3.590000 0.609000 4.124000
H -4.016000 -0.861000 3.253000
H -4.279000 2.927000 3.510000
H -3.181000 3.006000 2.266000
H -6.151000 2.618000 1.375000
H -5.824000 4.142000 2.217000
H -6.597000 3.949000 -0.860000
H -5.387000 2.680000 -0.835000
H -4.888000 5.489000 -1.889000
H -3.715000 4.181000 -1.878000
