64
central_cf3side rod (whole structure, as scored by UMA)
C 6.422000 1.410000 4.208000
O 6.058000 1.509000 2.833000
C 6.153000 0.340000 2.155000
O 6.588000 -0.691000 2.524000
C 5.593000 0.456000 0.765000
C 5.250000 1.664000 0.198000
C 4.713000 1.747000 -1.075000
C 4.121000 3.039000 -1.518000
N 2.672000 3.001000 -1.774000
C 1.689000 3.133000 -0.799000
O 1.944000 3.581000 0.332000
C 0.394000 2.661000 -1.212000
C -0.643000 2.923000 -0.326000
C -1.882000 2.409000 -0.644000
C -2.029000 1.548000 -1.780000
C -3.352000 0.931000 -2.089000
O -3.706000 0.782000 -3.259000
N -3.938000 0.417000 -0.955000
C -5.045000 -0.556000 -1.227000
C -5.677000 -1.006000 0.068000
C -5.086000 -2.101000 0.713000
C -5.632000 -2.633000 1.923000
C -4.941000 -3.817000 2.658000
F -5.229000 -3.958000 3.939000
F -3.562000 -3.749000 2.594000
F -5.256000 -4.942000 2.034000
C -6.786000 -2.087000 2.401000
C -7.355000 -0.936000 1.804000
C -8.668000 -0.244000 2.316000
F -9.413000 0.150000 1.232000
F -9.526000 -1.074000 2.977000
F -8.470000 0.904000 3.055000
C -6.778000 -0.389000 0.624000
C -0.981000 1.288000 -2.650000
C 0.242000 1.805000 -2.314000
C 4.665000 0.598000 -1.855000
C 5.128000 -0.640000 -1.380000
C 5.026000 -1.934000 -2.215000
O 4.717000 -1.882000 -3.386000
O 5.423000 -3.041000 -1.492000
C 5.360000 -4.212000 -2.237000
C 5.612000 -0.670000 -0.043000
H 5.702000 0.732000 4.682000
H 7.417000 0.973000 4.358000
H 6.481000 2.385000 4.708000
H 5.082000 2.493000 0.878000
H 4.403000 3.833000 -0.815000
H 4.546000 3.267000 -2.503000
H 2.411000 2.645000 -2.686000
H -0.552000 3.571000 0.541000
H -2.763000 2.712000 -0.087000
H -3.371000 0.206000 -0.143000
H -5.802999 -0.193000 -1.933000
H -4.614000 -1.451000 -1.692000
H -4.209000 -2.559000 0.266000
H -7.263000 -2.556000 3.257000
H -7.269000 0.468000 0.174000
H -1.091000 0.629000 -3.507000
H 1.063000 1.604000 -2.995000
H 4.195000 0.673000 -2.831000
H 4.298000 -4.324000 -2.489000
H 5.686000 -5.055000 -1.617000
H 5.964000 -4.193000 -3.152000
H 5.872000 -1.597000 0.460000
